TITL MRMND in Pbca
CELL 0.71073 17.789217 15.812932 28.402528 90 90 90
ZERR 8 0.00029 0.000276 0.000518 0 0 0
LATT 1
SYMM 0.5-X,-Y,0.5+Z
SYMM 0.5+X,0.5-Y,-Z
SYMM -X,0.5+Y,0.5-Z
 
SFAC C H D O P Pt S
UNIT 336 368 96 24 16 8 8
 
L.S. 4 0 0
PLAN  20
MORE -1
BOND $H
CONF
fmap 2 53
acta 52
REM <HKL>/Users/melanie/Desktop/Crystal%20structures%20from%20pc/MRMND/MRMND.h
REM kl</HKL>
 
WGHT    0.064500   82.618004
FVAR       0.80539
PT1   6    0.442502    0.373103    0.319394    11.00000    0.01293    0.02118 =
         0.02287   -0.00188    0.00155   -0.00132
S7    7    0.213882    0.520309    0.467225    11.00000    0.01923    0.02641 =
         0.02880   -0.00337    0.01001    0.00046
P12   5    0.476364    0.490139    0.363584    11.00000    0.01184    0.01868 =
         0.02074    0.00027    0.00181    0.00063
P19   5    0.315873    0.345204    0.311768    11.00000    0.01063    0.02489 =
         0.02054   -0.00171    0.00249   -0.00107
O2    4    0.544420    0.328271    0.299899    11.00000    0.01987    0.03248 =
         0.04826   -0.01466    0.00723    0.00397
C13   1    0.264999    0.260967    0.576070    11.00000    0.05260    0.04279 =
         0.04214   -0.01094    0.01353   -0.01277
AFIX  43
D13   3    0.226616    0.266160    0.598112    11.00000   -1.20000
AFIX   0
 
C25   1    0.408285    0.768891    0.462895    11.00000    0.02919    0.01736 =
         0.04432   -0.00453   -0.00405    0.00003
AFIX 137
H25A  2    0.416688    0.769600    0.496280    11.00000   -1.50000
H25B  2    0.368540    0.807535    0.455158    11.00000   -1.50000
H25C  2    0.453465    0.785587    0.446917    11.00000   -1.50000
AFIX   0
O28   4    0.485575    0.276413    0.281443    11.00000    0.02156    0.03068 =
         0.04153   -0.01366    0.00308    0.00015
O38   4    0.324432    0.438724    0.405301    11.00000    0.00990    0.01497 =
         0.02434   -0.00138    0.00000    0.00206
 
C48   1    0.270011    0.316746    0.539592    11.00000    0.03012    0.02918 =
         0.05374   -0.00857   -0.00108   -0.00436
AFIX  43
D48   3    0.235311    0.360497    0.537049    11.00000   -1.20000
AFIX   0
 
C52   1    0.229828    0.311293    0.225050    11.00000    0.02175    0.09005 =
         0.02524   -0.00779   -0.00153   -0.00844
AFIX 137
H52A  2    0.244154    0.253136    0.228730    11.00000   -1.50000
H52B  2    0.226230    0.324579    0.192147    11.00000   -1.50000
H52C  2    0.181995    0.320524    0.239831    11.00000   -1.50000
AFIX   0
C1    1    0.024536    0.408216    0.339327    11.00000    0.01284    0.06225 =
         0.04211    0.00208   -0.00150    0.00417
AFIX 137
H1A   2    0.024843    0.377437    0.310193    11.00000   -1.50000
H1B   2    0.002361    0.462855    0.334414    11.00000   -1.50000
H1C   2   -0.004229    0.377620    0.362298    11.00000   -1.50000
AFIX   0
C6    1    0.299364    0.566288    0.448311    11.00000    0.01654    0.02022 =
         0.02228    0.00031    0.00328    0.00297
C12   1    0.361135    0.360224    0.218714    11.00000    0.02354    0.06466 =
         0.01737   -0.00288    0.00218    0.00069
AFIX 137
H12A  2    0.398758    0.397945    0.230802    11.00000   -1.50000
H12B  2    0.350367    0.374488    0.186560    11.00000   -1.50000
H12C  2    0.379260    0.303114    0.220323    11.00000   -1.50000
AFIX   0
C16   1    0.432013    0.634345    0.417826    11.00000    0.01889    0.01925 =
         0.02455    0.00051   -0.00254   -0.00178
AFIX  43
H16   2    0.477175    0.658009    0.407903    11.00000   -1.20000
AFIX   0
C28   1    0.289292    0.368410    0.248195    11.00000    0.01909    0.04792 =
         0.02098   -0.00137    0.00075   -0.00284
C53   1    0.238615    0.393386    0.345326    11.00000    0.01199    0.02635 =
         0.02178    0.00146    0.00282    0.00154
 
C59   1    0.317573    0.196256    0.580158    11.00000    0.07123    0.04209 =
         0.02867    0.01005   -0.00417   -0.01190
AFIX  43
D59   3    0.314951    0.158403    0.605164    11.00000   -1.20000
AFIX   0
 
C62   1    0.450037    0.846967    0.631249    11.00000    0.05120    0.02974 =
         0.08303    0.00822   -0.02652   -0.00277
AFIX  43
D62   3    0.479751    0.806648    0.646144    11.00000   -1.20000
AFIX   0
 
C65   1    0.361846    0.964843    0.586973    11.00000    0.05950    0.03600 =
         0.06548   -0.01393   -0.03008    0.00805
AFIX  43
D65   3    0.332174    1.004761    0.571714    11.00000   -1.20000
AFIX   0
 
C76   1    0.456074    0.625090    0.302108    11.00000    0.03694    0.03256 =
         0.03033    0.00943    0.00392    0.00197
AFIX 137
H76A  2    0.415993    0.589861    0.290814    11.00000   -1.50000
H76B  2    0.474913    0.659098    0.276717    11.00000   -1.50000
H76C  2    0.437575    0.661168    0.326699    11.00000   -1.50000
AFIX   0
C77   1    0.251655    0.433871    0.387754    11.00000    0.00732    0.01700 =
         0.02567    0.00384    0.00137   -0.00037
C85   1    0.386579    0.680972    0.447726    11.00000    0.01971    0.01724 =
         0.02672   -0.00024   -0.00394    0.00196
C94   1    0.583072    0.626668    0.340921    11.00000    0.03020    0.03002 =
         0.04889   -0.00171    0.01291   -0.01283
AFIX 137
H94A  2    0.563848    0.660176    0.366405    11.00000   -1.50000
H94B  2    0.600840    0.663224    0.316337    11.00000   -1.50000
H94C  2    0.623779    0.592206    0.352069    11.00000   -1.50000
AFIX   0
 
C95   1    0.342818    0.937865    0.629959    11.00000    0.03889    0.08156 =
         0.06573   -0.03676   -0.00785    0.00701
AFIX  43
D95   3    0.299912    0.959002    0.644501    11.00000   -1.20000
AFIX   0
 
C103  1    0.519754    0.569236    0.321486    11.00000    0.02210    0.02362 =
         0.03129    0.00340    0.00973   -0.00473
C107  1    0.220281    0.199970    0.330229    11.00000    0.02774    0.03621 =
         0.03674   -0.00423    0.00756   -0.01667
AFIX 137
H10A  2    0.192109    0.233068    0.352399    11.00000   -1.50000
H10B  2    0.218973    0.141569    0.339424    11.00000   -1.50000
H10C  2    0.198599    0.205990    0.299459    11.00000   -1.50000
AFIX   0
 
C111  1    0.326159    0.308703    0.506478    11.00000    0.03967    0.02397 =
         0.02920   -0.00098   -0.00384   -0.00650
AFIX  43
D111  3    0.328785    0.346442    0.481418    11.00000   -1.20000
AFIX   0
 
C132  1    0.387143    0.878110    0.653048    11.00000    0.07016    0.08539 =
         0.04547   -0.00435   -0.00612   -0.02545
AFIX  43
D132  3    0.374113    0.859531    0.683024    11.00000   -1.20000
AFIX   0
 
C133  1    0.424624    0.934010    0.565433    11.00000    0.07113    0.04382 =
         0.04862   -0.00314   -0.01333   -0.01764
AFIX  43
D133  3    0.437608    0.952818    0.535493    11.00000   -1.20000
AFIX   0
 
C143  1    0.103787    0.418756    0.356661    11.00000    0.01103    0.03687 =
         0.03422    0.00607    0.00031    0.00018
C155  1    0.546666    0.451870    0.409092    11.00000    0.01639    0.02181 =
         0.02773   -0.00164   -0.00474    0.00194
C157  1    0.192901    0.469044    0.413828    11.00000    0.01452    0.02328 =
         0.02688    0.00233    0.00470    0.00264
C162  1    0.373219    0.188677    0.547103    11.00000    0.03537    0.03698 =
         0.05162    0.00386   -0.01169    0.00428
AFIX  43
D162  3    0.407999    0.144972    0.549460    11.00000   -1.20000
AFIX   0
 
C165  1    0.319186    0.646622    0.462830    11.00000    0.02228    0.01848 =
         0.02271   -0.00301   -0.00032    0.00601
AFIX  43
H165  2    0.287589    0.677307    0.482544    11.00000   -1.20000
AFIX   0
C173  1    0.333388    0.224761    0.379495    11.00000    0.02975    0.02607 =
         0.03154    0.00287   -0.00049   -0.00076
AFIX 137
H17A  2    0.384872    0.242949    0.379782    11.00000   -1.50000
H17B  2    0.330437    0.167241    0.390149    11.00000   -1.50000
H17C  2    0.304331    0.260261    0.400003    11.00000   -1.50000
AFIX   0
C175  1    0.163235    0.385926    0.330921    11.00000    0.01457    0.03846 =
         0.02873   -0.00035    0.00129   -0.00854
AFIX  43
H175  2    0.152833    0.357758    0.302925    11.00000   -1.20000
AFIX   0
C184  1    0.345489    0.520067    0.418196    11.00000    0.01309    0.01732 =
         0.01739    0.00068   -0.00018    0.00251
C189  1    0.264033    0.460931    0.245969    11.00000    0.02784    0.05690 =
         0.03443    0.01577    0.00219    0.00923
AFIX 137
H18A  2    0.214700    0.466113    0.259362    11.00000   -1.50000
H18B  2    0.262932    0.479237    0.213750    11.00000   -1.50000
H18C  2    0.298637    0.495428    0.263400    11.00000   -1.50000
AFIX   0
C220  1    0.617339    0.415774    0.385367    11.00000    0.02136    0.03438 =
         0.04474   -0.00629   -0.00196    0.01022
AFIX 137
H22A  2    0.602895    0.374836    0.362106    11.00000   -1.50000
H22B  2    0.648514    0.389185    0.408649    11.00000   -1.50000
H22C  2    0.644769    0.460748    0.370523    11.00000   -1.50000
AFIX   0
C222  1    0.413164    0.552931    0.401740    11.00000    0.01136    0.01982 =
         0.01841    0.00101    0.00061    0.00235
C236  1    0.552909    0.519968    0.279730    11.00000    0.03642    0.02987 =
         0.03578    0.00002    0.01853   -0.00447
AFIX 137
H23A  2    0.587498    0.478164    0.291194    11.00000   -1.50000
H23B  2    0.578845    0.558332    0.259179    11.00000   -1.50000
H23C  2    0.513098    0.492628    0.262730    11.00000   -1.50000
AFIX   0
C237  1    0.119301    0.462045    0.398183    11.00000    0.01242    0.02709 =
         0.03059    0.00353    0.00505    0.00278
AFIX  43
H237  2    0.080399    0.486243    0.415417    11.00000   -1.20000
AFIX   0
C241  1    0.570835    0.518369    0.445219    11.00000    0.02546    0.02402 =
         0.03556   -0.00579   -0.01047    0.00269
AFIX 137
H24A  2    0.594240    0.564990    0.429286    11.00000   -1.50000
H24B  2    0.605899    0.493666    0.466921    11.00000   -1.50000
H24C  2    0.527522    0.538155    0.462105    11.00000   -1.50000
AFIX   0
 
C266  1    0.468507    0.875486    0.587788    11.00000    0.04226    0.04730 =
         0.07296   -0.01602   -0.00318    0.00047
AFIX  43
D266  3    0.511474    0.855045    0.573009    11.00000   -1.20000
AFIX   0
 
C272  1    0.302284    0.230878    0.329272    11.00000    0.01894    0.02569 =
         0.02989   -0.00502    0.00564   -0.00697
C282  1    0.506142    0.379924    0.435189    11.00000    0.03214    0.02435 =
         0.02862    0.00277   -0.00692    0.00183
AFIX 137
H28A  2    0.460919    0.401303    0.449277    11.00000   -1.50000
H28B  2    0.538452    0.357737    0.459279    11.00000   -1.50000
H28C  2    0.493749    0.335805    0.413306    11.00000   -1.50000
AFIX   0
 
C287  1    0.378022    0.245276    0.510431    11.00000    0.03039    0.03470 =
         0.04100   -0.00286    0.00348   -0.00371
AFIX  43
D287  3    0.416442    0.240407    0.488391    11.00000   -1.20000
AFIX   0
 
C304  1    0.346950    0.171517    0.296836    11.00000    0.03288    0.02495 =
         0.04452   -0.01056    0.00907   -0.00551
AFIX 137
H30A  2    0.326632    0.174179    0.265559    11.00000   -1.50000
H30B  2    0.343414    0.114617    0.308412    11.00000   -1.50000
H30C  2    0.398708    0.188670    0.296274    11.00000   -1.50000
AFIX   0
HKLF 4
 
REM  MRMND in Pbca
REM R1 =  0.0638 for   11302 Fo > 4sig(Fo)  and  0.0824 for all   14395 data
REM    456 parameters refined using      0 restraints
 
END  
     
WGHT      0.0646     82.6191 

REM Highest difference peak  7.616,  deepest hole -3.055,  1-sigma level  0.231
Q1    1   0.4204  0.4167  0.3195  11.00000  0.05    7.62
Q2    1   0.4417  0.3176  0.3181  11.00000  0.05    3.52
Q3    1   0.4419  0.3548  0.3427  11.00000  0.05    2.73
Q4    1   0.4406  0.1273  0.5395  11.00000  0.05    2.09
Q5    1   0.0472  0.3561  0.3215  11.00000  0.05    1.90
Q6    1   0.4936  0.3772  0.3241  11.00000  0.05    1.76
Q7    1   0.0569  0.4206  0.3209  11.00000  0.05    1.56
Q8    1   0.3371  0.5200  0.3001  11.00000  0.05    1.20
Q9    1   0.3143  0.3071  0.3073  11.00000  0.05    1.18
Q10   1   0.2093  0.5141  0.4483  11.00000  0.05    1.15
Q11   1   0.3175  0.3979  0.3196  11.00000  0.05    0.95
Q12   1   0.2041  0.3380  0.1831  11.00000  0.05    0.93
Q13   1   0.1707  0.3751  0.1812  11.00000  0.05    0.88
Q14   1   0.1163  0.4382  0.3777  11.00000  0.05    0.84
Q15   1   0.2399  0.4168  0.3593  11.00000  0.05    0.83
Q16   1   0.2283  0.4027  0.3233  11.00000  0.05    0.79
Q17   1   0.3071  0.3579  0.2819  11.00000  0.05    0.79
Q18   1   0.5382  0.2977  0.2789  11.00000  0.05    0.73
Q19   1   0.3983  0.7047  0.4557  11.00000  0.05    0.73
Q20   1   0.5596  0.3561  0.4564  11.00000  0.05    0.72

REM The information below was added by Olex2.
REM
REM R1 = 0.0638 for 11302 Fo > 4sig(Fo) and 0.0824 for all 123365 data
REM n/a parameters refined using n/a restraints
REM Highest difference peak 7.62, deepest hole -3.05
REM Mean Shift 0, Max Shift 0.002.

REM +++ Tabular Listing of Refinement Information +++
REM R1_all = 0.0824
REM R1_gt = 0.0638
REM wR_ref = 0.1718
REM GOOF = 1.101
REM Shift_max = 0.002
REM Shift_mean = 0
REM Reflections_all = 123365
REM Reflections_gt = 11302
REM Parameters = n/a
REM Hole = -3.05
REM Peak = 7.62
REM Flack = n/a

