data_mrmnd
_audit_creation_date              2014-05-07
_audit_creation_method
;
Olex2 1.2
(compiled 2014.03.20 svn.r2918 for OlexSys, GUI svn.r4816)
;
_shelxl_version_number            2013-4
_publ_contact_author_address      ?
_publ_contact_author_email        ?
_publ_contact_author_name         ''
_publ_contact_author_phone        ?
_publ_section_references
;
Dolomanov, O.V., Bourhis, L.J., Gildea, R.J, Howard, J.A.K. & Puschmann, H.
 (2009), J. Appl. Cryst. 42, 339-341.

Palatinus, L. & Chapuis, G. (2007). J. Appl. Cryst., 40, 786-790;
Palatinus, L. & van der Lee, A. (2008). J. Appl. Cryst. 41, 975-984;
Palatinus, L., Prathapa, S. J. & van Smaalen, S. (2012). J. Appl. Cryst. 45,
 575-580.

Sheldrick, G.M. (2008). Acta Cryst. A64, 112-122.
;
_chemical_name_common             ?
_chemical_name_systematic
;
 ?
;
_chemical_formula_moiety          'C30 H46 O3 P2 Pt S, 2(C6 D6)'
_chemical_formula_sum             'C42 H46 D12 O3 P2 Pt S'
_chemical_formula_weight          912.04
_chemical_melting_point           ?
_chemical_oxdiff_formula          'C30 H46 O1 P2 Pt1 S1'
_chemical_oxdiff_usercomment      'John S/VUW/ 8117'
loop_
  _atom_type_symbol
  _atom_type_description
  _atom_type_scat_dispersion_real
  _atom_type_scat_dispersion_imag
  _atom_type_scat_source
 'C' 'C' 0.0033 0.0016 'International Tables Vol C Tables 4.2.6.8 and 6.1.1.4'
 'H' 'H' 0.0000 0.0000 'International Tables Vol C Tables 4.2.6.8 and 6.1.1.4'
 'D' 'D' 0.0000 0.0000 'International Tables Vol C Tables 4.2.6.8 and 6.1.1.4'
 'O' 'O' 0.0106 0.0060 'International Tables Vol C Tables 4.2.6.8 and 6.1.1.4'
 'P' 'P' 0.1023 0.0942 'International Tables Vol C Tables 4.2.6.8 and 6.1.1.4'
 'Pt' 'Pt' -1.7033 8.3905
 'International Tables Vol C Tables 4.2.6.8 and 6.1.1.4'
 'S' 'S' 0.1246 0.1234 'International Tables Vol C Tables 4.2.6.8 and 6.1.1.4'

_shelx_space_group_comment
;
The symmetry employed for this shelxl refinement is uniquely defined
by the following loop, which should always be used as a source of
symmetry information in preference to the above space-group names.
They are only intended as comments.
;
_space_group_crystal_system       'orthorhombic'
_space_group_IT_number            61
_space_group_name_H-M_alt         'P b c a'
_space_group_name_Hall            '-P 2ac 2ab'
loop_
  _space_group_symop_operation_xyz
 'x, y, z'
 '-x+1/2, -y, z+1/2'
 'x+1/2, -y+1/2, -z'
 '-x, y+1/2, -z+1/2'
 '-x, -y, -z'
 'x-1/2, y, -z-1/2'
 '-x-1/2, y-1/2, z'
 'x, -y-1/2, z-1/2'

_cell_length_a                    17.7892(3)
_cell_length_b                    15.8129(3)
_cell_length_c                    28.4025(5)
_cell_angle_alpha                 90
_cell_angle_beta                  90
_cell_angle_gamma                 90
_cell_volume                      7989.6(2)
_cell_formula_units_Z             8
_cell_measurement_reflns_used     30537
_cell_measurement_temperature     120.01(10)
_cell_measurement_theta_max       32.8658
_cell_measurement_theta_min       2.6686
_shelx_estimated_absorpt_T_max    ?
_shelx_estimated_absorpt_T_min    ?
_exptl_absorpt_coefficient_mu     3.682
_exptl_absorpt_correction_T_max   1.00000
_exptl_absorpt_correction_T_min   0.76744
_exptl_absorpt_correction_type    multi-scan
_exptl_absorpt_process_details
;
CrysAlisPro, Agilent Technologies,
Version 1.171.36.21 (release 14-08-2012 CrysAlis171 .NET)
(compiled Sep 14 2012,17:21:16)
Empirical absorption correction using spherical harmonics,
 implemented in SCALE3 ABSPACK scaling algorithm.
;
_exptl_crystal_colour             white
_exptl_crystal_colour_primary     white
_exptl_crystal_density_diffrn     1.516
_exptl_crystal_density_meas       ?
_exptl_crystal_density_method     ?
_exptl_crystal_description        block
_exptl_crystal_F_000              3664
_exptl_crystal_size_max           0.21
_exptl_crystal_size_mid           0.16
_exptl_crystal_size_min           0.15
_exptl_special_details
;
 ?
;
_exptl_transmission_factor_max    ?
_exptl_transmission_factor_min    ?
_diffrn_reflns_av_R_equivalents   0.0668
_diffrn_reflns_av_unetI/netI      0.0383
_diffrn_reflns_Laue_measured_fraction_full 0.999
_diffrn_reflns_Laue_measured_fraction_max 0.960
_diffrn_reflns_limit_h_max        26
_diffrn_reflns_limit_h_min        -27
_diffrn_reflns_limit_k_max        24
_diffrn_reflns_limit_k_min        -22
_diffrn_reflns_limit_l_max        40
_diffrn_reflns_limit_l_min        -43
_diffrn_reflns_number             118275
_diffrn_reflns_point_group_measured_fraction_full 0.999
_diffrn_reflns_point_group_measured_fraction_max 0.960
_diffrn_reflns_theta_full         26.000
_diffrn_reflns_theta_max          32.941
_diffrn_reflns_theta_min          2.674
_diffrn_ambient_temperature       120.01(10)
_diffrn_detector_area_resol_mean  21.3001
_diffrn_measured_fraction_theta_full 0.999
_diffrn_measured_fraction_theta_max 0.960
_diffrn_measurement_details
;
#__ type_ start__ end____ width___ exp.time_
  1 omega   -1.00   45.00   1.0000   82.9900
omega____ theta____ kappa____ phi______ frames
    -       20.1934  -19.0000   30.0000 46

#__ type_ start__ end____ width___ exp.time_
  2 omega  -58.00  -26.00   1.0000   82.9900
omega____ theta____ kappa____ phi______ frames
    -       20.1934  -19.0000   30.0000 32

#__ type_ start__ end____ width___ exp.time_
  3 omega   40.00  108.00   1.0000   82.9900
omega____ theta____ kappa____ phi______ frames
    -       20.1934  178.0000    0.0000 68

#__ type_ start__ end____ width___ exp.time_
  4 omega    6.00   80.00   1.0000   82.9900
omega____ theta____ kappa____ phi______ frames
    -       20.1934   77.0000    0.0000 74

#__ type_ start__ end____ width___ exp.time_
  5 omega  -80.00  -55.00   1.0000   82.9900
omega____ theta____ kappa____ phi______ frames
    -      -20.9746  128.0000   97.0000 25

#__ type_ start__ end____ width___ exp.time_
  6 omega  -13.00   99.00   1.0000   82.9900
omega____ theta____ kappa____ phi______ frames
    -       20.1934   77.0000  150.0000 112

#__ type_ start__ end____ width___ exp.time_
  7 omega  -20.00   62.00   1.0000   82.9900
omega____ theta____ kappa____ phi______ frames
    -       20.1934  -99.0000   30.0000 82

#__ type_ start__ end____ width___ exp.time_
  8 omega   -6.00   19.00   1.0000   82.9900
omega____ theta____ kappa____ phi______ frames
    -       20.1934   37.0000  -30.0000 25

#__ type_ start__ end____ width___ exp.time_
  9 omega -109.00  -55.00   1.0000   82.9900
omega____ theta____ kappa____ phi______ frames
    -      -20.9746  178.0000   30.0000 54
;
_diffrn_measurement_device_type   'SuperNova, Dual, Cu at zero, Atlas'
_diffrn_measurement_method        '\w scans'
_diffrn_orient_matrix_UB_11       -0.0198386000
_diffrn_orient_matrix_UB_12       0.0077724000
_diffrn_orient_matrix_UB_13       -0.0212356000
_diffrn_orient_matrix_UB_21       0.0345185000
_diffrn_orient_matrix_UB_22       0.0018643000
_diffrn_orient_matrix_UB_23       -0.0124388000
_diffrn_orient_matrix_UB_31       -0.0020268000
_diffrn_orient_matrix_UB_32       -0.0441368000
_diffrn_orient_matrix_UB_33       -0.0042727000
_diffrn_radiation_monochromator   mirror
_diffrn_radiation_type            MoK\a
_diffrn_radiation_wavelength      0.71073
_diffrn_source                    'SuperNova (Mo) X-ray Source'
_diffrn_source_current            n/a
_diffrn_source_voltage            n/a
_reflns_Friedel_coverage          0.000
_reflns_Friedel_fraction_full     .
_reflns_Friedel_fraction_max      .
_reflns_number_gt                 11302
_reflns_number_total              14395
_reflns_odcompleteness_completeness 99.85
_reflns_odcompleteness_iscentric  1
_reflns_odcompleteness_theta      30.44
_reflns_special_details
;
 Reflections were merged by SHELXL according to the crystal
 class for the calculation of statistics and refinement.
 
 _reflns_Friedel_fraction is defined as the number of unique
 Friedel pairs measured divided by the number that would be
 possible theoretically, ignoring centric projections and
 systematic absences.
;
_reflns_threshold_expression      'I > 2\s(I)'
_computing_cell_refinement
;
CrysAlisPro, Agilent Technologies,
Version 1.171.36.21 (release 14-08-2012 CrysAlis171 .NET)
(compiled Sep 14 2012,17:21:16)
;
_computing_data_collection
;
CrysAlisPro, Agilent Technologies,
Version 1.171.36.21 (release 14-08-2012 CrysAlis171 .NET)
(compiled Sep 14 2012,17:21:16)
;
_computing_data_reduction
;
CrysAlisPro, Agilent Technologies,
Version 1.171.36.21 (release 14-08-2012 CrysAlis171 .NET)
(compiled Sep 14 2012,17:21:16)
;
_computing_molecular_graphics     'Olex2 (Dolomanov et al., 2009)'
_computing_publication_material   'Olex2 (Dolomanov et al., 2009)'
_computing_structure_refinement   'ShelXL (Sheldrick, 2008)'
_computing_structure_solution
;
Superflip (Palatinus & Chapuis, 2007;Palatinus & van der Lee, 2008;
Palatinus et al., 2012)
;
_refine_diff_density_max          7.616
_refine_diff_density_min          -3.055
_refine_diff_density_rms          0.231
_refine_ls_extinction_coef        .
_refine_ls_extinction_method      none
_refine_ls_goodness_of_fit_ref    1.101
_refine_ls_hydrogen_treatment     constr
_refine_ls_matrix_type            full
_refine_ls_number_parameters      456
_refine_ls_number_reflns          14395
_refine_ls_number_restraints      0
_refine_ls_R_factor_all           0.0824
_refine_ls_R_factor_gt            0.0638
_refine_ls_restrained_S_all       1.101
_refine_ls_shift/su_max           0.002
_refine_ls_shift/su_mean          0.000
_refine_ls_structure_factor_coef  Fsqd
_refine_ls_weighting_details
'w=1/[\s^2^(Fo^2^)+(0.0645P)^2^+82.6180P] where P=(Fo^2^+2Fc^2^)/3'
_refine_ls_weighting_scheme       calc
_refine_ls_wR_factor_gt           0.1563
_refine_ls_wR_factor_ref          0.1718
_refine_special_details
;
 ?
;
_olex2_refinement_description
;
1. Fixed Uiso
 At 1.2 times of:
  All C(H) groups
 At 1.5 times of:
  All C(H,H,H) groups
2.a Aromatic/amide H refined with riding coordinates:
 C13(D13), C48(D48), C16(H16), C59(D59), C62(D62), C65(D65), C95(D95),
 C111(D111), C132(D132), C133(D133), C162(D162), C165(H165), C175(H175),
 C237(H237), C266(D266), C287(D287)
2.b Idealised Me refined as rotating group:
 C25(H25A,H25B,H25C), C52(H52A,H52B,H52C), C1(H1A,H1B,H1C), C12(H12A,H12B,
 H12C), C76(H76A,H76B,H76C), C94(H94A,H94B,H94C), C107(H10A,H10B,H10C),
 C173(H17A,H17B,H17C), C189(H18A,H18B,H18C), C220(H22A,H22B,H22C), C236(H23A,
 H23B,H23C), C241(H24A,H24B,H24C), C282(H28A,H28B,H28C), C304(H30A,H30B,H30C)
;
_atom_sites_solution_hydrogens    geom
_atom_sites_solution_primary      iterative
_atom_sites_solution_secondary    ?
loop_
  _atom_site_label
  _atom_site_type_symbol
  _atom_site_fract_x
  _atom_site_fract_y
  _atom_site_fract_z
  _atom_site_U_iso_or_equiv
  _atom_site_adp_type
  _atom_site_occupancy
  _atom_site_site_symmetry_order
  _atom_site_calc_flag
  _atom_site_refinement_flags_posn
  _atom_site_refinement_flags_adp
  _atom_site_refinement_flags_occupancy
  _atom_site_disorder_assembly
  _atom_site_disorder_group
 Pt1 Pt 0.44250(2) 0.37310(2) 0.31939(2) 0.01899(7) Uani 1 1 d . . . . .
 S7 S 0.21388(8) 0.52031(9) 0.46722(5) 0.0248(3) Uani 1 1 d . . . . .
 P12 P 0.47636(7) 0.49014(8) 0.36358(4) 0.0171(2) Uani 1 1 d . . . . .
 P19 P 0.31587(7) 0.34520(9) 0.31177(5) 0.0187(2) Uani 1 1 d . . . . .
 O2 O 0.5444(2) 0.3283(3) 0.29990(18) 0.0335(10) Uani 1 1 d . . . . .
 C13 C 0.2650(5) 0.2610(5) 0.5761(3) 0.0458(18) Uani 1 1 d . . . . .
 D13 D 0.2266 0.2662 0.5981 0.055 Uiso 1 1 calc R . . . .
 C25 C 0.4083(4) 0.7689(4) 0.4629(2) 0.0303(12) Uani 1 1 d . . . . .
 H25A H 0.4167 0.7696 0.4963 0.045 Uiso 1 1 calc GR . . . .
 H25B H 0.3685 0.8075 0.4552 0.045 Uiso 1 1 calc GR . . . .
 H25C H 0.4535 0.7856 0.4469 0.045 Uiso 1 1 calc GR . . . .
 O28 O 0.4856(2) 0.2764(3) 0.28144(16) 0.0313(9) Uani 1 1 d . . . . .
 O38 O 0.32443(18) 0.4387(2) 0.40530(12) 0.0164(6) Uani 1 1 d . . . . .
 C48 C 0.2700(4) 0.3167(4) 0.5396(3) 0.0377(14) Uani 1 1 d . . . . .
 D48 D 0.2353 0.3605 0.5370 0.045 Uiso 1 1 calc R . . . .
 C52 C 0.2298(4) 0.3113(6) 0.2251(2) 0.046(2) Uani 1 1 d . . . . .
 H52A H 0.2442 0.2531 0.2287 0.069 Uiso 1 1 calc GR . . . .
 H52B H 0.2262 0.3246 0.1921 0.069 Uiso 1 1 calc GR . . . .
 H52C H 0.1820 0.3205 0.2398 0.069 Uiso 1 1 calc GR . . . .
 C1 C 0.0245(3) 0.4082(6) 0.3393(3) 0.0391(15) Uani 1 1 d . . . . .
 H1A H 0.0248 0.3774 0.3102 0.059 Uiso 1 1 calc GR . . . .
 H1B H 0.0024 0.4629 0.3344 0.059 Uiso 1 1 calc GR . . . .
 H1C H -0.0042 0.3776 0.3623 0.059 Uiso 1 1 calc GR . . . .
 C6 C 0.2994(3) 0.5663(3) 0.44831(18) 0.0197(9) Uani 1 1 d . . . . .
 C12 C 0.3611(4) 0.3602(5) 0.2187(2) 0.0352(14) Uani 1 1 d . . . . .
 H12A H 0.3988 0.3979 0.2308 0.053 Uiso 1 1 calc GR . . . .
 H12B H 0.3504 0.3745 0.1866 0.053 Uiso 1 1 calc GR . . . .
 H12C H 0.3793 0.3031 0.2203 0.053 Uiso 1 1 calc GR . . . .
 C16 C 0.4320(3) 0.6343(3) 0.41783(19) 0.0209(9) Uani 1 1 d . . . . .
 H16 H 0.4772 0.6580 0.4079 0.025 Uiso 1 1 calc R . . . .
 C28 C 0.2893(3) 0.3684(4) 0.2482(2) 0.0293(12) Uani 1 1 d . . . . .
 C53 C 0.2386(3) 0.3934(3) 0.34533(18) 0.0200(9) Uani 1 1 d . . . . .
 C59 C 0.3176(5) 0.1963(5) 0.5802(3) 0.0473(19) Uani 1 1 d . . . . .
 D59 D 0.3150 0.1584 0.6052 0.057 Uiso 1 1 calc R . . . .
 C62 C 0.4500(5) 0.8470(5) 0.6312(4) 0.055(2) Uani 1 1 d . . . . .
 D62 D 0.4798 0.8066 0.6461 0.066 Uiso 1 1 calc R . . . .
 C65 C 0.3618(5) 0.9648(5) 0.5870(3) 0.054(2) Uani 1 1 d . . . . .
 D65 D 0.3322 1.0048 0.5717 0.064 Uiso 1 1 calc R . . . .
 C76 C 0.4561(4) 0.6251(4) 0.3021(2) 0.0333(13) Uani 1 1 d . . . . .
 H76A H 0.4160 0.5899 0.2908 0.050 Uiso 1 1 calc GR . . . .
 H76B H 0.4749 0.6591 0.2767 0.050 Uiso 1 1 calc GR . . . .
 H76C H 0.4376 0.6612 0.3267 0.050 Uiso 1 1 calc GR . . . .
 C77 C 0.2517(2) 0.4339(3) 0.38775(17) 0.0167(8) Uani 1 1 d . . . . .
 C85 C 0.3866(3) 0.6810(3) 0.44773(19) 0.0212(9) Uani 1 1 d . . . . .
 C94 C 0.5831(4) 0.6267(4) 0.3409(3) 0.0364(14) Uani 1 1 d . . . . .
 H94A H 0.5638 0.6602 0.3664 0.055 Uiso 1 1 calc GR . . . .
 H94B H 0.6008 0.6632 0.3163 0.055 Uiso 1 1 calc GR . . . .
 H94C H 0.6238 0.5922 0.3521 0.055 Uiso 1 1 calc GR . . . .
 C95 C 0.3428(5) 0.9379(7) 0.6300(4) 0.062(3) Uani 1 1 d . . . . .
 D95 D 0.2999 0.9590 0.6445 0.074 Uiso 1 1 calc R . . . .
 C103 C 0.5198(3) 0.5692(4) 0.3215(2) 0.0257(11) Uani 1 1 d . . . . .
 C107 C 0.2203(4) 0.2000(4) 0.3302(2) 0.0336(13) Uani 1 1 d . . . . .
 H10A H 0.1921 0.2331 0.3524 0.050 Uiso 1 1 calc GR . . . .
 H10B H 0.2190 0.1416 0.3394 0.050 Uiso 1 1 calc GR . . . .
 H10C H 0.1986 0.2060 0.2995 0.050 Uiso 1 1 calc GR . . . .
 C111 C 0.3262(4) 0.3087(4) 0.5065(2) 0.0309(12) Uani 1 1 d . . . . .
 D111 D 0.3288 0.3464 0.4814 0.037 Uiso 1 1 calc R . . . .
 C132 C 0.3871(7) 0.8781(8) 0.6530(4) 0.067(3) Uani 1 1 d . . . . .
 D132 D 0.3741 0.8595 0.6830 0.080 Uiso 1 1 calc R . . . .
 C133 C 0.4246(6) 0.9340(6) 0.5654(3) 0.055(2) Uani 1 1 d . . . . .
 D133 D 0.4376 0.9528 0.5355 0.065 Uiso 1 1 calc R . . . .
 C143 C 0.1038(3) 0.4188(4) 0.3567(2) 0.0274(11) Uani 1 1 d . . . . .
 C155 C 0.5467(3) 0.4519(3) 0.40909(19) 0.0220(9) Uani 1 1 d . . . . .
 C157 C 0.1929(3) 0.4690(3) 0.41383(19) 0.0216(9) Uani 1 1 d . . . . .
 C162 C 0.3732(4) 0.1887(5) 0.5471(3) 0.0413(16) Uani 1 1 d . . . . .
 D162 D 0.4080 0.1450 0.5495 0.050 Uiso 1 1 calc R . . . .
 C165 C 0.3192(3) 0.6466(3) 0.46283(18) 0.0212(9) Uani 1 1 d . . . . .
 H165 H 0.2876 0.6773 0.4825 0.025 Uiso 1 1 calc R . . . .
 C173 C 0.3334(4) 0.2248(4) 0.3795(2) 0.0291(11) Uani 1 1 d . . . . .
 H17A H 0.3849 0.2429 0.3798 0.044 Uiso 1 1 calc GR . . . .
 H17B H 0.3304 0.1672 0.3901 0.044 Uiso 1 1 calc GR . . . .
 H17C H 0.3043 0.2603 0.4000 0.044 Uiso 1 1 calc GR . . . .
 C175 C 0.1632(3) 0.3859(4) 0.3309(2) 0.0273(11) Uani 1 1 d . . . . .
 H175 H 0.1528 0.3578 0.3029 0.033 Uiso 1 1 calc R . . . .
 C184 C 0.3455(3) 0.5201(3) 0.41820(16) 0.0159(8) Uani 1 1 d . . . . .
 C189 C 0.2640(4) 0.4609(5) 0.2460(2) 0.0397(16) Uani 1 1 d . . . . .
 H18A H 0.2147 0.4661 0.2594 0.060 Uiso 1 1 calc GR . . . .
 H18B H 0.2629 0.4792 0.2137 0.060 Uiso 1 1 calc GR . . . .
 H18C H 0.2986 0.4954 0.2634 0.060 Uiso 1 1 calc GR . . . .
 C220 C 0.6173(3) 0.4158(4) 0.3854(2) 0.0335(13) Uani 1 1 d . . . . .
 H22A H 0.6029 0.3748 0.3621 0.050 Uiso 1 1 calc GR . . . .
 H22B H 0.6485 0.3892 0.4086 0.050 Uiso 1 1 calc GR . . . .
 H22C H 0.6448 0.4607 0.3705 0.050 Uiso 1 1 calc GR . . . .
 C222 C 0.4132(3) 0.5529(3) 0.40174(16) 0.0165(8) Uani 1 1 d . . . . .
 C236 C 0.5529(4) 0.5200(4) 0.2797(2) 0.0340(14) Uani 1 1 d . . . . .
 H23A H 0.5875 0.4782 0.2912 0.051 Uiso 1 1 calc GR . . . .
 H23B H 0.5788 0.5583 0.2592 0.051 Uiso 1 1 calc GR . . . .
 H23C H 0.5131 0.4926 0.2627 0.051 Uiso 1 1 calc GR . . . .
 C237 C 0.1193(3) 0.4620(4) 0.3982(2) 0.0234(10) Uani 1 1 d . . . . .
 H237 H 0.0804 0.4862 0.4154 0.028 Uiso 1 1 calc R . . . .
 C241 C 0.5708(3) 0.5184(4) 0.4452(2) 0.0283(11) Uani 1 1 d . . . . .
 H24A H 0.5942 0.5650 0.4293 0.043 Uiso 1 1 calc GR . . . .
 H24B H 0.6059 0.4937 0.4669 0.043 Uiso 1 1 calc GR . . . .
 H24C H 0.5275 0.5382 0.4621 0.043 Uiso 1 1 calc GR . . . .
 C266 C 0.4685(5) 0.8755(6) 0.5878(4) 0.054(2) Uani 1 1 d . . . . .
 D266 D 0.5115 0.8550 0.5730 0.065 Uiso 1 1 calc R . . . .
 C272 C 0.3023(3) 0.2309(4) 0.3293(2) 0.0248(10) Uani 1 1 d . . . . .
 C282 C 0.5061(4) 0.3799(4) 0.4352(2) 0.0284(11) Uani 1 1 d . . . . .
 H28A H 0.4609 0.4013 0.4493 0.043 Uiso 1 1 calc GR . . . .
 H28B H 0.5385 0.3577 0.4593 0.043 Uiso 1 1 calc GR . . . .
 H28C H 0.4937 0.3358 0.4133 0.043 Uiso 1 1 calc GR . . . .
 C287 C 0.3780(4) 0.2453(4) 0.5104(2) 0.0354(13) Uani 1 1 d . . . . .
 D287 D 0.4164 0.2404 0.4884 0.042 Uiso 1 1 calc R . . . .
 C304 C 0.3469(4) 0.1715(4) 0.2968(3) 0.0341(13) Uani 1 1 d . . . . .
 H30A H 0.3266 0.1742 0.2656 0.051 Uiso 1 1 calc GR . . . .
 H30B H 0.3434 0.1146 0.3084 0.051 Uiso 1 1 calc GR . . . .
 H30C H 0.3987 0.1887 0.2963 0.051 Uiso 1 1 calc GR . . . .

loop_
  _atom_site_aniso_label
  _atom_site_aniso_U_11
  _atom_site_aniso_U_22
  _atom_site_aniso_U_33
  _atom_site_aniso_U_23
  _atom_site_aniso_U_13
  _atom_site_aniso_U_12
 Pt1 0.01293(10) 0.02118(10) 0.02287(10) -0.00188(6) 0.00155(6) -0.00132(6)
 S7 0.0192(6) 0.0264(6) 0.0288(6) -0.0034(5) 0.0100(5) 0.0005(5)
 P12 0.0118(5) 0.0187(5) 0.0207(5) 0.0003(4) 0.0018(4) 0.0006(4)
 P19 0.0106(5) 0.0249(6) 0.0205(5) -0.0017(4) 0.0025(4) -0.0011(4)
 O2 0.0199(18) 0.032(2) 0.048(3) -0.015(2) 0.0072(18) 0.0040(17)
 C13 0.053(5) 0.043(4) 0.042(4) -0.011(3) 0.014(3) -0.013(3)
 C25 0.029(3) 0.017(2) 0.044(3) -0.005(2) -0.004(2) 0.000(2)
 O28 0.0216(19) 0.031(2) 0.042(2) -0.0137(18) 0.0031(17) 0.0001(16)
 O38 0.0099(14) 0.0150(15) 0.0243(16) -0.0014(12) 0.0000(12) 0.0021(11)
 C48 0.030(3) 0.029(3) 0.054(4) -0.009(3) -0.001(3) -0.004(2)
 C52 0.022(3) 0.090(6) 0.025(3) -0.008(3) -0.002(2) -0.008(3)
 C1 0.013(2) 0.062(5) 0.042(4) 0.002(3) -0.001(2) 0.004(3)
 C6 0.017(2) 0.020(2) 0.022(2) 0.0003(17) 0.0033(17) 0.0030(17)
 C12 0.024(3) 0.065(5) 0.017(2) -0.003(2) 0.002(2) 0.001(3)
 C16 0.019(2) 0.019(2) 0.025(2) 0.0005(17) -0.0025(18) -0.0018(17)
 C28 0.019(2) 0.048(4) 0.021(2) -0.001(2) 0.0007(19) -0.003(2)
 C53 0.0120(19) 0.026(2) 0.022(2) 0.0015(17) 0.0028(16) 0.0015(17)
 C59 0.071(6) 0.042(4) 0.029(3) 0.010(3) -0.004(3) -0.012(4)
 C62 0.051(5) 0.030(4) 0.083(7) 0.008(4) -0.027(4) -0.003(3)
 C65 0.059(5) 0.036(4) 0.065(5) -0.014(4) -0.030(4) 0.008(4)
 C76 0.037(3) 0.033(3) 0.030(3) 0.009(2) 0.004(2) 0.002(3)
 C77 0.0073(17) 0.017(2) 0.026(2) 0.0038(16) 0.0014(15) -0.0004(14)
 C85 0.020(2) 0.017(2) 0.027(2) -0.0002(17) -0.0039(18) 0.0020(17)
 C94 0.030(3) 0.030(3) 0.049(4) -0.002(3) 0.013(3) -0.013(3)
 C95 0.039(4) 0.082(7) 0.066(6) -0.037(5) -0.008(4) 0.007(4)
 C103 0.022(2) 0.024(2) 0.031(3) 0.0034(19) 0.010(2) -0.005(2)
 C107 0.028(3) 0.036(3) 0.037(3) -0.004(2) 0.008(2) -0.017(2)
 C111 0.040(3) 0.024(3) 0.029(3) -0.001(2) -0.004(2) -0.007(2)
 C132 0.070(7) 0.085(8) 0.045(5) -0.004(5) -0.006(5) -0.025(6)
 C133 0.071(6) 0.044(4) 0.049(4) -0.003(3) -0.013(4) -0.018(4)
 C143 0.011(2) 0.037(3) 0.034(3) 0.006(2) 0.0003(19) 0.000(2)
 C155 0.016(2) 0.022(2) 0.028(2) -0.0016(18) -0.0047(18) 0.0019(18)
 C157 0.015(2) 0.023(2) 0.027(2) 0.0023(18) 0.0047(17) 0.0026(17)
 C162 0.035(3) 0.037(4) 0.052(4) 0.004(3) -0.012(3) 0.004(3)
 C165 0.022(2) 0.018(2) 0.023(2) -0.0030(16) -0.0003(18) 0.0060(17)
 C173 0.030(3) 0.026(3) 0.032(3) 0.003(2) 0.000(2) -0.001(2)
 C175 0.015(2) 0.038(3) 0.029(3) 0.000(2) 0.0013(19) -0.009(2)
 C184 0.0131(18) 0.017(2) 0.0174(19) 0.0007(15) -0.0002(15) 0.0025(15)
 C189 0.028(3) 0.057(4) 0.034(3) 0.016(3) 0.002(2) 0.009(3)
 C220 0.021(3) 0.034(3) 0.045(3) -0.006(3) -0.002(2) 0.010(2)
 C222 0.0114(18) 0.020(2) 0.018(2) 0.0010(15) 0.0006(15) 0.0023(15)
 C236 0.036(3) 0.030(3) 0.036(3) 0.000(2) 0.019(3) -0.004(2)
 C237 0.012(2) 0.027(2) 0.031(3) 0.0035(19) 0.0051(18) 0.0028(18)
 C241 0.025(3) 0.024(3) 0.036(3) -0.006(2) -0.010(2) 0.003(2)
 C266 0.042(4) 0.047(5) 0.073(6) -0.016(4) -0.003(4) 0.000(4)
 C272 0.019(2) 0.026(3) 0.030(3) -0.005(2) 0.0056(19) -0.0070(19)
 C282 0.032(3) 0.024(3) 0.029(3) 0.003(2) -0.007(2) 0.002(2)
 C287 0.030(3) 0.035(3) 0.041(3) -0.003(3) 0.003(3) -0.004(3)
 C304 0.033(3) 0.025(3) 0.045(3) -0.011(2) 0.009(3) -0.006(2)

_geom_special_details
;
 All esds (except the esd in the dihedral angle between two l.s. planes)
 are estimated using the full covariance matrix.  The cell esds are taken
 into account individually in the estimation of esds in distances, angles
 and torsion angles; correlations between esds in cell parameters are only
 used when they are defined by crystal symmetry.  An approximate (isotropic)
 treatment of cell esds is used for estimating esds involving l.s. planes.
;
loop_
  _geom_bond_atom_site_label_1
  _geom_bond_atom_site_label_2
  _geom_bond_distance
  _geom_bond_site_symmetry_2
  _geom_bond_publ_flag
 Pt1 P12 2.3158(13) . ?
 Pt1 P19 2.3056(13) . ?
 Pt1 O2 2.024(4) . ?
 Pt1 O28 2.022(4) . ?
 S7 C6 1.769(5) . ?
 S7 C157 1.760(6) . ?
 P12 C103 1.895(5) . ?
 P12 C155 1.898(5) . ?
 P12 C222 1.851(5) . ?
 P19 C28 1.902(6) . ?
 P19 C53 1.838(5) . ?
 P19 C272 1.890(6) . ?
 O2 O28 1.429(6) . ?
 C13 D13 0.9300 . ?
 C13 C48 1.364(11) . ?
 C13 C59 1.391(13) . ?
 C25 H25A 0.9600 . ?
 C25 H25B 0.9600 . ?
 C25 H25C 0.9600 . ?
 C25 C85 1.506(7) . ?
 O38 C77 1.389(5) . ?
 O38 C184 1.389(6) . ?
 C48 D48 0.9300 . ?
 C48 C111 1.378(10) . ?
 C52 H52A 0.9600 . ?
 C52 H52B 0.9600 . ?
 C52 H52C 0.9600 . ?
 C52 C28 1.538(9) . ?
 C1 H1A 0.9600 . ?
 C1 H1B 0.9600 . ?
 C1 H1C 0.9600 . ?
 C1 C143 1.503(8) . ?
 C6 C165 1.381(7) . ?
 C6 C184 1.393(7) . ?
 C12 H12A 0.9600 . ?
 C12 H12B 0.9600 . ?
 C12 H12C 0.9600 . ?
 C12 C28 1.533(8) . ?
 C16 H16 0.9300 . ?
 C16 C85 1.385(7) . ?
 C16 C222 1.407(7) . ?
 C28 C189 1.532(10) . ?
 C53 C77 1.384(7) . ?
 C53 C175 1.407(7) . ?
 C59 D59 0.9300 . ?
 C59 C162 1.370(12) . ?
 C62 D62 0.9300 . ?
 C62 C132 1.370(16) . ?
 C62 C266 1.355(15) . ?
 C65 D65 0.9300 . ?
 C65 C95 1.337(15) . ?
 C65 C133 1.364(14) . ?
 C76 H76A 0.9600 . ?
 C76 H76B 0.9600 . ?
 C76 H76C 0.9600 . ?
 C76 C103 1.538(9) . ?
 C77 C157 1.396(7) . ?
 C85 C165 1.384(8) . ?
 C94 H94A 0.9600 . ?
 C94 H94B 0.9600 . ?
 C94 H94C 0.9600 . ?
 C94 C103 1.549(9) . ?
 C95 D95 0.9300 . ?
 C95 C132 1.395(16) . ?
 C103 C236 1.537(8) . ?
 C107 H10A 0.9600 . ?
 C107 H10B 0.9600 . ?
 C107 H10C 0.9600 . ?
 C107 C272 1.539(8) . ?
 C111 D111 0.9300 . ?
 C111 C287 1.367(10) . ?
 C132 D132 0.9300 . ?
 C133 D133 0.9300 . ?
 C133 C266 1.367(14) . ?
 C143 C175 1.387(8) . ?
 C143 C237 1.391(9) . ?
 C155 C220 1.536(8) . ?
 C155 C241 1.531(8) . ?
 C155 C282 1.537(8) . ?
 C157 C237 1.387(7) . ?
 C162 D162 0.9300 . ?
 C162 C287 1.376(10) . ?
 C165 H165 0.9300 . ?
 C173 H17A 0.9600 . ?
 C173 H17B 0.9600 . ?
 C173 H17C 0.9600 . ?
 C173 C272 1.533(8) . ?
 C175 H175 0.9300 . ?
 C184 C222 1.392(7) . ?
 C189 H18A 0.9600 . ?
 C189 H18B 0.9600 . ?
 C189 H18C 0.9600 . ?
 C220 H22A 0.9600 . ?
 C220 H22B 0.9600 . ?
 C220 H22C 0.9600 . ?
 C236 H23A 0.9600 . ?
 C236 H23B 0.9600 . ?
 C236 H23C 0.9600 . ?
 C237 H237 0.9300 . ?
 C241 H24A 0.9600 . ?
 C241 H24B 0.9600 . ?
 C241 H24C 0.9600 . ?
 C266 D266 0.9300 . ?
 C272 C304 1.537(8) . ?
 C282 H28A 0.9600 . ?
 C282 H28B 0.9600 . ?
 C282 H28C 0.9600 . ?
 C287 D287 0.9300 . ?
 C304 H30A 0.9600 . ?
 C304 H30B 0.9600 . ?
 C304 H30C 0.9600 . ?

loop_
  _geom_angle_atom_site_label_1
  _geom_angle_atom_site_label_2
  _geom_angle_atom_site_label_3
  _geom_angle
  _geom_angle_site_symmetry_1
  _geom_angle_site_symmetry_3
  _geom_angle_publ_flag
 P19 Pt1 P12 117.26(5) . . ?
 O2 Pt1 P12 101.26(14) . . ?
 O2 Pt1 P19 141.49(14) . . ?
 O28 Pt1 P12 142.64(13) . . ?
 O28 Pt1 P19 100.11(13) . . ?
 O28 Pt1 O2 41.38(18) . . ?
 C157 S7 C6 96.3(2) . . ?
 C103 P12 Pt1 106.95(19) . . ?
 C103 P12 C155 111.8(3) . . ?
 C155 P12 Pt1 106.60(17) . . ?
 C222 P12 Pt1 126.03(16) . . ?
 C222 P12 C103 105.2(2) . . ?
 C222 P12 C155 99.9(2) . . ?
 C28 P19 Pt1 107.17(19) . . ?
 C53 P19 Pt1 127.05(18) . . ?
 C53 P19 C28 103.1(3) . . ?
 C53 P19 C272 99.5(2) . . ?
 C272 P19 Pt1 106.45(18) . . ?
 C272 P19 C28 113.7(3) . . ?
 O28 O2 Pt1 69.2(2) . . ?
 C48 C13 D13 120.2 . . ?
 C48 C13 C59 119.7(7) . . ?
 C59 C13 D13 120.2 . . ?
 H25A C25 H25B 109.5 . . ?
 H25A C25 H25C 109.5 . . ?
 H25B C25 H25C 109.5 . . ?
 C85 C25 H25A 109.5 . . ?
 C85 C25 H25B 109.5 . . ?
 C85 C25 H25C 109.5 . . ?
 O2 O28 Pt1 69.4(2) . . ?
 C184 O38 C77 113.4(4) . . ?
 C13 C48 D48 119.8 . . ?
 C13 C48 C111 120.4(7) . . ?
 C111 C48 D48 119.8 . . ?
 H52A C52 H52B 109.5 . . ?
 H52A C52 H52C 109.5 . . ?
 H52B C52 H52C 109.5 . . ?
 C28 C52 H52A 109.5 . . ?
 C28 C52 H52B 109.5 . . ?
 C28 C52 H52C 109.5 . . ?
 H1A C1 H1B 109.5 . . ?
 H1A C1 H1C 109.5 . . ?
 H1B C1 H1C 109.5 . . ?
 C143 C1 H1A 109.5 . . ?
 C143 C1 H1B 109.5 . . ?
 C143 C1 H1C 109.5 . . ?
 C165 C6 S7 120.4(4) . . ?
 C165 C6 C184 121.0(5) . . ?
 C184 C6 S7 118.5(4) . . ?
 H12A C12 H12B 109.5 . . ?
 H12A C12 H12C 109.5 . . ?
 H12B C12 H12C 109.5 . . ?
 C28 C12 H12A 109.5 . . ?
 C28 C12 H12B 109.5 . . ?
 C28 C12 H12C 109.5 . . ?
 C85 C16 H16 118.4 . . ?
 C85 C16 C222 123.2(5) . . ?
 C222 C16 H16 118.4 . . ?
 C52 C28 P19 117.6(5) . . ?
 C12 C28 P19 107.1(4) . . ?
 C12 C28 C52 106.9(5) . . ?
 C189 C28 P19 107.2(4) . . ?
 C189 C28 C52 110.0(6) . . ?
 C189 C28 C12 107.6(6) . . ?
 C77 C53 P19 121.2(4) . . ?
 C77 C53 C175 116.9(5) . . ?
 C175 C53 P19 121.8(4) . . ?
 C13 C59 D59 120.2 . . ?
 C162 C59 C13 119.5(7) . . ?
 C162 C59 D59 120.2 . . ?
 C132 C62 D62 120.3 . . ?
 C266 C62 D62 120.3 . . ?
 C266 C62 C132 119.4(9) . . ?
 C95 C65 D65 119.9 . . ?
 C95 C65 C133 120.2(9) . . ?
 C133 C65 D65 119.9 . . ?
 H76A C76 H76B 109.5 . . ?
 H76A C76 H76C 109.5 . . ?
 H76B C76 H76C 109.5 . . ?
 C103 C76 H76A 109.5 . . ?
 C103 C76 H76B 109.5 . . ?
 C103 C76 H76C 109.5 . . ?
 O38 C77 C157 119.0(4) . . ?
 C53 C77 O38 119.6(4) . . ?
 C53 C77 C157 121.4(4) . . ?
 C16 C85 C25 121.2(5) . . ?
 C165 C85 C25 119.7(5) . . ?
 C165 C85 C16 119.1(5) . . ?
 H94A C94 H94B 109.5 . . ?
 H94A C94 H94C 109.5 . . ?
 H94B C94 H94C 109.5 . . ?
 C103 C94 H94A 109.5 . . ?
 C103 C94 H94B 109.5 . . ?
 C103 C94 H94C 109.5 . . ?
 C65 C95 D95 119.9 . . ?
 C65 C95 C132 120.2(9) . . ?
 C132 C95 D95 119.9 . . ?
 C76 C103 P12 107.7(4) . . ?
 C76 C103 C94 109.1(5) . . ?
 C94 C103 P12 117.3(4) . . ?
 C236 C103 P12 108.0(4) . . ?
 C236 C103 C76 107.3(5) . . ?
 C236 C103 C94 107.1(5) . . ?
 H10A C107 H10B 109.5 . . ?
 H10A C107 H10C 109.5 . . ?
 H10B C107 H10C 109.5 . . ?
 C272 C107 H10A 109.5 . . ?
 C272 C107 H10B 109.5 . . ?
 C272 C107 H10C 109.5 . . ?
 C48 C111 D111 120.0 . . ?
 C287 C111 C48 120.1(6) . . ?
 C287 C111 D111 120.0 . . ?
 C62 C132 C95 119.5(10) . . ?
 C62 C132 D132 120.2 . . ?
 C95 C132 D132 120.2 . . ?
 C65 C133 D133 120.0 . . ?
 C65 C133 C266 120.1(9) . . ?
 C266 C133 D133 120.0 . . ?
 C175 C143 C1 120.1(6) . . ?
 C175 C143 C237 118.7(5) . . ?
 C237 C143 C1 121.2(5) . . ?
 C220 C155 P12 111.0(4) . . ?
 C220 C155 C282 108.7(5) . . ?
 C241 C155 P12 115.0(4) . . ?
 C241 C155 C220 108.6(5) . . ?
 C241 C155 C282 108.5(5) . . ?
 C282 C155 P12 104.8(4) . . ?
 C77 C157 S7 118.8(4) . . ?
 C237 C157 S7 120.9(4) . . ?
 C237 C157 C77 120.3(5) . . ?
 C59 C162 D162 119.8 . . ?
 C59 C162 C287 120.5(7) . . ?
 C287 C162 D162 119.8 . . ?
 C6 C165 C85 119.3(5) . . ?
 C6 C165 H165 120.3 . . ?
 C85 C165 H165 120.3 . . ?
 H17A C173 H17B 109.5 . . ?
 H17A C173 H17C 109.5 . . ?
 H17B C173 H17C 109.5 . . ?
 C272 C173 H17A 109.5 . . ?
 C272 C173 H17B 109.5 . . ?
 C272 C173 H17C 109.5 . . ?
 C53 C175 H175 118.6 . . ?
 C143 C175 C53 122.8(5) . . ?
 C143 C175 H175 118.6 . . ?
 O38 C184 C6 119.3(4) . . ?
 O38 C184 C222 119.4(4) . . ?
 C222 C184 C6 121.3(5) . . ?
 C28 C189 H18A 109.5 . . ?
 C28 C189 H18B 109.5 . . ?
 C28 C189 H18C 109.5 . . ?
 H18A C189 H18B 109.5 . . ?
 H18A C189 H18C 109.5 . . ?
 H18B C189 H18C 109.5 . . ?
 C155 C220 H22A 109.5 . . ?
 C155 C220 H22B 109.5 . . ?
 C155 C220 H22C 109.5 . . ?
 H22A C220 H22B 109.5 . . ?
 H22A C220 H22C 109.5 . . ?
 H22B C220 H22C 109.5 . . ?
 C16 C222 P12 122.4(4) . . ?
 C184 C222 P12 121.4(4) . . ?
 C184 C222 C16 116.0(4) . . ?
 C103 C236 H23A 109.5 . . ?
 C103 C236 H23B 109.5 . . ?
 C103 C236 H23C 109.5 . . ?
 H23A C236 H23B 109.5 . . ?
 H23A C236 H23C 109.5 . . ?
 H23B C236 H23C 109.5 . . ?
 C143 C237 H237 120.1 . . ?
 C157 C237 C143 119.9(5) . . ?
 C157 C237 H237 120.1 . . ?
 C155 C241 H24A 109.5 . . ?
 C155 C241 H24B 109.5 . . ?
 C155 C241 H24C 109.5 . . ?
 H24A C241 H24B 109.5 . . ?
 H24A C241 H24C 109.5 . . ?
 H24B C241 H24C 109.5 . . ?
 C62 C266 C133 120.7(9) . . ?
 C62 C266 D266 119.7 . . ?
 C133 C266 D266 119.7 . . ?
 C107 C272 P19 115.4(5) . . ?
 C173 C272 P19 105.0(4) . . ?
 C173 C272 C107 107.8(5) . . ?
 C173 C272 C304 109.4(5) . . ?
 C304 C272 P19 111.1(4) . . ?
 C304 C272 C107 107.9(5) . . ?
 C155 C282 H28A 109.5 . . ?
 C155 C282 H28B 109.5 . . ?
 C155 C282 H28C 109.5 . . ?
 H28A C282 H28B 109.5 . . ?
 H28A C282 H28C 109.5 . . ?
 H28B C282 H28C 109.5 . . ?
 C111 C287 C162 119.8(7) . . ?
 C111 C287 D287 120.1 . . ?
 C162 C287 D287 120.1 . . ?
 C272 C304 H30A 109.5 . . ?
 C272 C304 H30B 109.5 . . ?
 C272 C304 H30C 109.5 . . ?
 H30A C304 H30B 109.5 . . ?
 H30A C304 H30C 109.5 . . ?
 H30B C304 H30C 109.5 . . ?

loop_
  _geom_torsion_atom_site_label_1
  _geom_torsion_atom_site_label_2
  _geom_torsion_atom_site_label_3
  _geom_torsion_atom_site_label_4
  _geom_torsion
  _geom_torsion_site_symmetry_1
  _geom_torsion_site_symmetry_2
  _geom_torsion_site_symmetry_3
  _geom_torsion_site_symmetry_4
  _geom_torsion_publ_flag
 Pt1 P12 C103 C76 89.0(4) . . . . ?
 Pt1 P12 C103 C94 -147.6(4) . . . . ?
 Pt1 P12 C103 C236 -26.6(5) . . . . ?
 Pt1 P12 C155 C220 61.7(4) . . . . ?
 Pt1 P12 C155 C241 -174.5(4) . . . . ?
 Pt1 P12 C155 C282 -55.5(4) . . . . ?
 Pt1 P12 C222 C16 -163.4(3) . . . . ?
 Pt1 P12 C222 C184 20.0(5) . . . . ?
 Pt1 P19 C53 C77 -18.8(5) . . . . ?
 Pt1 P19 C53 C175 165.6(4) . . . . ?
 Pt1 P19 C272 C107 175.8(4) . . . . ?
 Pt1 P19 C272 C173 57.2(4) . . . . ?
 Pt1 P19 C272 C304 -61.0(4) . . . . ?
 S7 C6 C165 C85 179.7(4) . . . . ?
 S7 C6 C184 O38 -2.2(6) . . . . ?
 S7 C6 C184 C222 179.5(4) . . . . ?
 S7 C157 C237 C143 -177.8(4) . . . . ?
 P19 C53 C77 O38 0.4(7) . . . . ?
 P19 C53 C77 C157 -178.7(4) . . . . ?
 P19 C53 C175 C143 177.3(5) . . . . ?
 C13 C48 C111 C287 -1.0(10) . . . . ?
 C13 C59 C162 C287 1.0(12) . . . . ?
 C25 C85 C165 C6 179.3(5) . . . . ?
 O38 C77 C157 S7 1.5(6) . . . . ?
 O38 C77 C157 C237 -177.3(5) . . . . ?
 O38 C184 C222 P12 -0.7(6) . . . . ?
 O38 C184 C222 C16 -177.6(4) . . . . ?
 C48 C13 C59 C162 -0.9(12) . . . . ?
 C48 C111 C287 C162 1.1(10) . . . . ?
 C1 C143 C175 C53 -179.8(6) . . . . ?
 C1 C143 C237 C157 178.5(6) . . . . ?
 C6 S7 C157 C77 37.2(5) . . . . ?
 C6 S7 C157 C237 -144.0(5) . . . . ?
 C6 C184 C222 P12 177.6(4) . . . . ?
 C6 C184 C222 C16 0.8(7) . . . . ?
 C16 C85 C165 C6 0.9(8) . . . . ?
 C28 P19 C53 C77 -142.6(4) . . . . ?
 C28 P19 C53 C175 41.9(5) . . . . ?
 C28 P19 C272 C107 -66.4(5) . . . . ?
 C28 P19 C272 C173 175.0(4) . . . . ?
 C28 P19 C272 C304 56.8(5) . . . . ?
 C53 P19 C272 C107 42.5(5) . . . . ?
 C53 P19 C272 C173 -76.1(4) . . . . ?
 C53 P19 C272 C304 165.7(4) . . . . ?
 C53 C77 C157 S7 -179.5(4) . . . . ?
 C53 C77 C157 C237 1.8(8) . . . . ?
 C59 C13 C48 C111 0.9(11) . . . . ?
 C59 C162 C287 C111 -1.1(11) . . . . ?
 C65 C95 C132 C62 -0.4(15) . . . . ?
 C65 C133 C266 C62 0.5(13) . . . . ?
 C77 O38 C184 C6 51.9(6) . . . . ?
 C77 O38 C184 C222 -129.7(4) . . . . ?
 C77 C53 C175 C143 1.6(9) . . . . ?
 C77 C157 C237 C143 0.9(8) . . . . ?
 C85 C16 C222 P12 -177.7(4) . . . . ?
 C85 C16 C222 C184 -0.9(7) . . . . ?
 C95 C65 C133 C266 -0.2(13) . . . . ?
 C103 P12 C155 C220 -54.9(5) . . . . ?
 C103 P12 C155 C241 69.0(5) . . . . ?
 C103 P12 C155 C282 -172.0(4) . . . . ?
 C103 P12 C222 C16 -38.5(5) . . . . ?
 C103 P12 C222 C184 144.9(4) . . . . ?
 C132 C62 C266 C133 -0.8(14) . . . . ?
 C133 C65 C95 C132 0.1(14) . . . . ?
 C155 P12 C103 C76 -154.6(4) . . . . ?
 C155 P12 C103 C94 -31.2(5) . . . . ?
 C155 P12 C103 C236 89.8(5) . . . . ?
 C155 P12 C222 C16 77.6(4) . . . . ?
 C155 P12 C222 C184 -99.0(4) . . . . ?
 C157 S7 C6 C165 142.5(4) . . . . ?
 C157 S7 C6 C184 -36.9(4) . . . . ?
 C165 C6 C184 O38 178.5(4) . . . . ?
 C165 C6 C184 C222 0.1(7) . . . . ?
 C175 C53 C77 O38 176.1(5) . . . . ?
 C175 C53 C77 C157 -2.9(8) . . . . ?
 C175 C143 C237 C157 -2.2(9) . . . . ?
 C184 O38 C77 C53 129.4(5) . . . . ?
 C184 O38 C77 C157 -51.5(6) . . . . ?
 C184 C6 C165 C85 -1.0(8) . . . . ?
 C222 P12 C103 C76 -47.1(5) . . . . ?
 C222 P12 C103 C94 76.4(5) . . . . ?
 C222 P12 C103 C236 -162.7(4) . . . . ?
 C222 P12 C155 C220 -165.8(4) . . . . ?
 C222 P12 C155 C241 -42.0(5) . . . . ?
 C222 P12 C155 C282 77.0(4) . . . . ?
 C222 C16 C85 C25 -178.3(5) . . . . ?
 C222 C16 C85 C165 0.0(8) . . . . ?
 C237 C143 C175 C53 1.0(9) . . . . ?
 C266 C62 C132 C95 0.7(14) . . . . ?
 C272 P19 C53 C77 100.2(5) . . . . ?
 C272 P19 C53 C175 -75.3(5) . . . . ?

_olex2_computing_structure_refinement_long 'ShelXL (Sheldrick, 2008)'
