TITL
CELL 0.71073 46.8743 13.1 21.7852 90 105.208 90
ZERR 8 0.0016 0.0004 0.0007 0 0.002 0
LATT 7
SYMM -X,+Y,0.5-Z
 
SFAC C H Cl O P Pt S
UNIT 596 456 40 16 32 8 16
 
L.S. 4 0 0
PLAN  20
TEMP 23
MORE -1
BOND $H
CONF
fmap 2 53
acta 52
REM <HKL>/Users/melanie/Documents/Research/Thesis/Crystal%20Structures/MRMNA-P
REM tSPh2/MRMNAN.hkl</HKL>
 
WGHT    0.037600   20.269701
FVAR       0.02611
PT3   6    0.370987    0.767341    0.337823    11.00000    0.01287    0.01207 =
         0.01109    0.00008    0.00387    0.00011
CL2   3    0.508665    0.844803    0.586217    11.00000    0.08445    0.04003 =
         0.04519   -0.00921    0.01302   -0.00951
CL10  3    0.249303    0.003035    0.477905    11.00000    0.03749    0.06651 =
         0.05750    0.01845    0.01911    0.01256
CL12  3    0.471092    0.410458    0.262486    11.00000    0.11549    0.10654 =
         0.03883   -0.01554    0.01933   -0.03413
CL16  3    0.477244    0.927042    0.671993    11.00000    0.06246    0.34752 =
         0.06066    0.06260    0.03300    0.09420
CL17  3    0.271514    0.127098    0.389606    11.00000    0.04200    0.04216 =
         0.04763    0.00512    0.01652    0.00994
S21   7    0.351491    1.211551    0.421583    11.00000    0.02875    0.01520 =
         0.02439   -0.00277    0.00924    0.00271
P25   5    0.330092    0.856215    0.278339    11.00000    0.01412    0.01645 =
         0.01193    0.00077    0.00303    0.00135
S30   7    0.494725    0.559538    0.411463    11.00000    0.01709    0.02088 =
         0.02696    0.00187    0.00423    0.00522
P35   5    0.371666    0.589631    0.331700    11.00000    0.01623    0.01293 =
         0.01384   -0.00093    0.00446   -0.00114
P38   5    0.374482    0.804492    0.443867    11.00000    0.01369    0.01381 =
         0.01136    0.00038    0.00358    0.00050
P43   5    0.409820    0.830068    0.301213    11.00000    0.01514    0.01323 =
         0.01494    0.00161    0.00628    0.00088
C1    1    0.448939    0.649620    0.536666    11.00000    0.02051    0.04018 =
         0.02511    0.00615    0.00762    0.01197
AFIX  43
H1    2    0.467236    0.637170    0.529018    11.00000   -1.20000
AFIX   0
O9    4    0.436537    0.640621    0.336728    11.00000    0.01849    0.01471 =
         0.01727    0.00279    0.00433    0.00080
C12   1    0.442501    0.609989    0.590388    11.00000    0.02808    0.03367 =
         0.02079    0.00732    0.00354    0.01344
AFIX  43
H12   2    0.456444    0.570822    0.618985    11.00000   -1.20000
AFIX   0
O14   4    0.343486    0.990494    0.396362    11.00000    0.01755    0.01557 =
         0.01417    0.00103    0.00379   -0.00075
C15   1    0.273910    0.916404    0.292830    11.00000    0.01816    0.05232 =
         0.03151   -0.00751    0.00534    0.00416
AFIX  43
H15   2    0.279522    0.983339    0.287840    11.00000   -1.20000
AFIX   0
C21   1    0.293687    0.805133    0.153995    11.00000    0.02522    0.03682 =
         0.01846    0.00090    0.00221   -0.00576
AFIX  43
H21   2    0.278152    0.795551    0.172591    11.00000   -1.20000
AFIX   0
C25   1    0.292355    0.776910    0.524622    11.00000    0.02115    0.03571 =
         0.02691    0.00791    0.01340    0.00511
AFIX  43
H25   2    0.276208    0.768758    0.541474    11.00000   -1.20000
AFIX   0
C2    1    0.245991    0.896009    0.302000    11.00000    0.01756    0.09236 =
         0.04910   -0.02046    0.01019    0.00329
AFIX  43
H2    2    0.233368    0.949769    0.304388    11.00000   -1.20000
AFIX   0
C7    1    0.457773    0.408688    0.431349    11.00000    0.02812    0.01781 =
         0.01964    0.00219   -0.00017    0.00481
AFIX  43
H7    2    0.474743    0.374941    0.453932    11.00000   -1.20000
AFIX   0
C11   1    0.289425    0.785735    0.089353    11.00000    0.04001    0.04307 =
         0.01772   -0.00176   -0.00114   -0.01041
AFIX  43
H11   2    0.271119    0.762818    0.065315    11.00000   -1.20000
AFIX   0
C13   1    0.407781    0.652283    0.143728    11.00000    0.05280    0.02523 =
         0.02338   -0.00331    0.01405    0.00401
AFIX  43
H13   2    0.394583    0.607271    0.117872    11.00000   -1.20000
AFIX   0
 
C24   1    0.500000    0.486634    0.250000    10.50000    0.10604    0.05652 =
         0.02479    0.00000    0.01366    0.00000
AFIX  23
H24A  2    0.492492    0.530135    0.213277    10.50000   -1.20000
H24B  2    0.507508    0.530135    0.286723    10.50000   -1.20000
AFIX   0
 
C27   1    0.369672    0.435038    0.237263    11.00000    0.02583    0.02044 =
         0.01874   -0.00281    0.00847    0.00064
AFIX  43
H27   2    0.385428    0.403569    0.266008    11.00000   -1.20000
AFIX   0
C30   1    0.309369    0.435857    0.439279    11.00000    0.05000    0.02478 =
         0.05893    0.00942    0.04049    0.00310
AFIX  43
H30   2    0.296848    0.407010    0.461291    11.00000   -1.20000
AFIX   0
C31   1    0.333741    0.435055    0.135299    11.00000    0.03798    0.03004 =
         0.01704   -0.00550    0.00542   -0.01097
AFIX  43
H31   2    0.325273    0.403662    0.096506    11.00000   -1.20000
AFIX   0
C37   1    0.339058    0.835819    0.096479    11.00000    0.03587    0.04206 =
         0.01855    0.00267    0.01098    0.00715
AFIX  43
H37   2    0.354324    0.847267    0.077340    11.00000   -1.20000
AFIX   0
C39   1    0.412467    0.956816    0.519983    11.00000    0.02083    0.02218 =
         0.01817   -0.00065    0.00266   -0.00172
AFIX  43
H39   2    0.424809    0.904497    0.540215    11.00000   -1.20000
AFIX   0
C41   1    0.300778    0.441289    0.373698    11.00000    0.03207    0.02901 =
         0.05971    0.00641    0.02345   -0.00460
AFIX  43
H41   2    0.282430    0.415983    0.351528    11.00000   -1.20000
AFIX   0
C46   1    0.483735    0.688639    0.405769    11.00000    0.01762    0.01735 =
         0.01869    0.00270    0.00735    0.00282
C49   1    0.394255    0.687966    0.558905    11.00000    0.02193    0.02774 =
         0.02018    0.00914    0.00837    0.00645
AFIX  43
H49   2    0.376008    0.700541    0.566764    11.00000   -1.20000
AFIX   0
C62   1    0.387072    0.933311    0.471647    11.00000    0.01746    0.01570 =
         0.01468   -0.00033    0.00585   -0.00063
C66   1    0.329749    1.164350    0.232190    11.00000    0.03767    0.02171 =
         0.02289    0.00887    0.00933    0.01013
AFIX  43
H66   2    0.326581    1.203110    0.195247    11.00000   -1.20000
AFIX   0
C67   1    0.410723    0.966100    0.280646    11.00000    0.01578    0.01635 =
         0.02254    0.00314    0.00837    0.00070
C71   1    0.502751    0.766375    0.436438    11.00000    0.01435    0.02534 =
         0.02068    0.00095    0.00362   -0.00036
AFIX  43
H71   2    0.521226    0.750472    0.462974    11.00000   -1.20000
AFIX   0
C74   1    0.415170    0.628975    0.601344    11.00000    0.03196    0.03482 =
         0.02279    0.01393    0.01190    0.01050
AFIX  43
H74   2    0.410771    0.602112    0.637306    11.00000   -1.20000
AFIX   0
C76   1    0.411431    1.001016    0.220536    11.00000    0.02480    0.01890 =
         0.02566    0.00588    0.00914    0.00328
AFIX  43
H76   2    0.411930    0.954198    0.188743    11.00000   -1.20000
AFIX   0
 
C78   1    0.507620    0.857277    0.665630    11.00000    0.05979    0.09733 =
         0.04676    0.02776    0.01713    0.01618
AFIX  23
H78A  2    0.506924    0.790017    0.683802    11.00000   -1.20000
H78B  2    0.525517    0.890856    0.689658    11.00000   -1.20000
AFIX   0
 
C82   1    0.459775    0.503256    0.403998    11.00000    0.02001    0.01687 =
         0.01771    0.00000    0.00247    0.00197
C86   1    0.323077    0.527750    0.149824    11.00000    0.03187    0.02859 =
         0.02066   -0.00106   -0.00181   -0.00405
AFIX  43
H86   2    0.307465    0.559210    0.120672    11.00000   -1.20000
AFIX   0
C94   1    0.319482    0.484523    0.340608    11.00000    0.02429    0.02194 =
         0.03640    0.00172    0.01306   -0.00271
AFIX  43
H94   2    0.313548    0.487102    0.296415    11.00000   -1.20000
AFIX   0
C96   1    0.312057    0.800147    0.060620    11.00000    0.04821    0.03565 =
         0.01365   -0.00078    0.00554    0.00174
AFIX  43
H96   2    0.309191    0.786027    0.017591    11.00000   -1.20000
AFIX   0
C98   1    0.336608    0.473408    0.472000    11.00000    0.06109    0.02106 =
         0.03424    0.00349    0.03123    0.00302
AFIX  43
H98   2    0.342532    0.468985    0.516136    11.00000   -1.20000
AFIX   0
C101  1    0.399957    0.702669    0.193609    11.00000    0.02933    0.01900 =
         0.02113   -0.00007    0.00953    0.00161
AFIX  43
H101  2    0.381569    0.690648    0.200905    11.00000   -1.20000
AFIX   0
C104  1    0.255824    0.717501    0.304228    11.00000    0.03686    0.07781 =
         0.03966   -0.00339    0.01128   -0.03245
AFIX  43
H104  2    0.249541    0.650722    0.306981    11.00000   -1.20000
AFIX   0
 
C105  1    0.278821    0.023737    0.443534    11.00000    0.02830    0.04023 =
         0.03661   -0.00049    0.00639    0.00744
AFIX  23
H10A  2    0.282140   -0.037518    0.421360    11.00000   -1.20000
H10B  2    0.296668    0.037703    0.476821    11.00000   -1.20000
AFIX   0
 
C108  1    0.294464    0.719737    0.472115    11.00000    0.01887    0.02840 =
         0.03241    0.00002    0.01005   -0.00190
AFIX  43
H108  2    0.279661    0.673487    0.453549    11.00000   -1.20000
AFIX   0
C112  1    0.419445    1.057824    0.538095    11.00000    0.02236    0.02650 =
         0.02118   -0.00427    0.00038   -0.00559
AFIX  43
H112  2    0.436397    1.072111    0.570240    11.00000   -1.20000
AFIX   0
C114  1    0.314503    0.846149    0.551659    11.00000    0.02701    0.03281 =
         0.01803    0.00031    0.01077    0.00536
AFIX  43
H114  2    0.312929    0.885529    0.586140    11.00000   -1.20000
AFIX   0
C115  1    0.358854    0.527753    0.253114    11.00000    0.02066    0.01555 =
         0.01511   -0.00165    0.00653   -0.00295
C119  1    0.411399    1.105223    0.207589    11.00000    0.02979    0.02478 =
         0.03891    0.01617    0.01400    0.00486
AFIX  43
H119  2    0.411494    1.127604    0.167131    11.00000   -1.20000
AFIX   0
C126  1    0.355279    0.517869    0.439374    11.00000    0.04333    0.01721 =
         0.02415   -0.00260    0.01689   -0.00294
AFIX  43
H126  2    0.373471    0.543818    0.461978    11.00000   -1.20000
AFIX   0
C128  1    0.346948    0.523963    0.372738    11.00000    0.02588    0.01265 =
         0.02473   -0.00129    0.01277   -0.00136
C133  1    0.456180    0.714523    0.367815    11.00000    0.01606    0.01620 =
         0.01756   -0.00039    0.00777   -0.00084
C136  1    0.284032    0.736425    0.296856    11.00000    0.02547    0.04363 =
         0.02663    0.00201    0.00476   -0.01195
AFIX  43
H136  2    0.296687    0.682194    0.295724    11.00000   -1.20000
AFIX   0
C137  1    0.335713    0.574039    0.208123    11.00000    0.02732    0.01791 =
         0.02184   -0.00195    0.00283   -0.00037
AFIX  43
H137  2    0.328605    0.636961    0.217261    11.00000   -1.20000
AFIX   0
C142  1    0.435223    0.669608    0.132961    11.00000    0.05661    0.03640 =
         0.02397    0.00210    0.02140    0.01948
AFIX  43
H142  2    0.440502    0.635738    0.100059    11.00000   -1.20000
AFIX   0
C148  1    0.357106    0.389184    0.178831    11.00000    0.03699    0.02231 =
         0.02151   -0.00663    0.01293   -0.00360
AFIX  43
H148  2    0.364470    0.327160    0.168934    11.00000   -1.20000
AFIX   0
C158  1    0.405877    0.515038    0.366840    11.00000    0.02035    0.01440 =
         0.01459   -0.00125    0.00368    0.00045
C163  1    0.327150    1.058771    0.227884    11.00000    0.03147    0.02180 =
         0.01635    0.00251    0.00458    0.00746
AFIX  43
H163  2    0.321905    1.028233    0.187957    11.00000   -1.20000
AFIX   0
C170  1    0.318842    0.732106    0.447503    11.00000    0.01702    0.02108 =
         0.02216   -0.00092    0.00690    0.00134
AFIX  43
H170  2    0.320013    0.694374    0.412085    11.00000   -1.20000
AFIX   0
C175  1    0.427885    0.708328    0.494007    11.00000    0.02216    0.03030 =
         0.01873    0.00676    0.00764    0.00695
AFIX  43
H175  2    0.432313    0.734406    0.457881    11.00000   -1.20000
AFIX   0
C177  1    0.446795    0.815722    0.356554    11.00000    0.01589    0.01670 =
         0.01830    0.00295    0.00841    0.00102
C179  1    0.404735    0.417676    0.393816    11.00000    0.02467    0.01698 =
         0.02099    0.00093    0.00275   -0.00232
AFIX  43
H179  2    0.386423    0.387839    0.390894    11.00000   -1.20000
AFIX   0
C181  1    0.293328    0.836183    0.291182    11.00000    0.01587    0.03672 =
         0.01426   -0.00184    0.00253   -0.00192
C183  1    0.343427    0.854607    0.161114    11.00000    0.02350    0.03246 =
         0.01732    0.00148    0.00550    0.00329
AFIX  43
H183  2    0.361717    0.878249    0.184786    11.00000   -1.20000
AFIX   0
C189  1    0.332254    0.997155    0.282364    11.00000    0.01718    0.01691 =
         0.01826    0.00243    0.00467    0.00430
C196  1    0.336998    1.212575    0.290807    11.00000    0.02920    0.01672 =
         0.02798    0.00525    0.01062    0.00663
AFIX  43
H196  2    0.338727    1.283263    0.293428    11.00000   -1.20000
AFIX   0
C200  1    0.341652    1.153808    0.345668    11.00000    0.02183    0.01623 =
         0.02100   -0.00033    0.00781    0.00383
C205  1    0.320982    0.838744    0.191090    11.00000    0.02191    0.01852 =
         0.01353    0.00165    0.00318    0.00334
C208  1    0.338995    0.857060    0.527608    11.00000    0.02268    0.02641 =
         0.01522   -0.00042    0.00649    0.00091
AFIX  43
H208  2    0.353867    0.902755    0.546676    11.00000   -1.20000
AFIX   0
C212  1    0.466095    0.891644    0.386994    11.00000    0.02034    0.01758 =
         0.02673    0.00033    0.00699   -0.00106
AFIX  43
H212  2    0.460475    0.959733    0.380689    11.00000   -1.20000
AFIX   0
C222  1    0.341535    0.800008    0.474967    11.00000    0.01510    0.01749 =
         0.01326    0.00246    0.00419    0.00346
C224  1    0.369257    1.014279    0.442875    11.00000    0.01586    0.01758 =
         0.01445   -0.00051    0.00558   -0.00128
C225  1    0.446896    0.787928    0.220270    11.00000    0.02533    0.03024 =
         0.02208    0.00374    0.01232    0.00390
AFIX  43
H225  2    0.460025    0.833916    0.245417    11.00000   -1.20000
AFIX   0
C228  1    0.430188    0.365277    0.424571    11.00000    0.03001    0.01386 =
         0.02466    0.00391    0.00309    0.00107
AFIX  43
H228  2    0.428710    0.300392    0.440787    11.00000   -1.20000
AFIX   0
C231  1    0.409351    1.038172    0.327369    11.00000    0.02125    0.01878 =
         0.02707   -0.00018    0.00900    0.00193
AFIX  43
H231  2    0.407977    1.016536    0.367152    11.00000   -1.20000
AFIX   0
C241  1    0.401406    1.137058    0.508735    11.00000    0.02919    0.01969 =
         0.02384   -0.00635    0.00846   -0.00733
AFIX  43
H241  2    0.406146    1.204223    0.521125    11.00000   -1.20000
AFIX   0
C245  1    0.376057    1.115198    0.460401    11.00000    0.02268    0.01628 =
         0.01881   -0.00243    0.00833   -0.00062
C250  1    0.400563    0.728494    0.504398    11.00000    0.02059    0.01411 =
         0.01301   -0.00025    0.00439    0.00053
C252  1    0.454742    0.737006    0.170946    11.00000    0.03384    0.04591 =
         0.02843    0.00583    0.02128    0.01404
AFIX  43
H252  2    0.473153    0.748460    0.163623    11.00000   -1.20000
AFIX   0
C254  1    0.411225    1.175516    0.255118    11.00000    0.02408    0.01694 =
         0.05493    0.00841    0.01271    0.00514
AFIX  43
H254  2    0.411906    1.245051    0.247012    11.00000   -1.20000
AFIX   0
C258  1    0.434128    0.553202    0.370335    11.00000    0.02180    0.01255 =
         0.01448    0.00026    0.00562    0.00214
C265  1    0.419406    0.770341    0.232214    11.00000    0.02062    0.01721 =
         0.01523    0.00367    0.00745    0.00506
C267  1    0.339256    1.047942    0.340986    11.00000    0.01609    0.01729 =
         0.01626    0.00195    0.00626    0.00386
C271  1    0.237172    0.798273    0.307444    11.00000    0.02011    0.11420 =
         0.04497   -0.02162    0.01315   -0.02309
AFIX  43
H271  2    0.218551    0.785592    0.313350    11.00000   -1.20000
AFIX   0
C280  1    0.493698    0.867380    0.426757    11.00000    0.02006    0.02243 =
         0.02782   -0.00056    0.00445   -0.00373
AFIX  43
H280  2    0.506193    0.919295    0.447030    11.00000   -1.20000
AFIX   0
C281  1    0.410042    1.142080    0.314337    11.00000    0.02517    0.01788 =
         0.04262   -0.00396    0.01045    0.00142
AFIX  43
H281  2    0.409700    1.189400    0.345960    11.00000   -1.20000
AFIX   0
HKLF 4
 
REM
REM R1 =  0.0239 for   16685 Fo > 4sig(Fo)  and  0.0358 for all   19386 data
REM    798 parameters refined using      0 restraints
 
END  
     
WGHT      0.0376     20.2850 

REM Highest difference peak  1.706,  deepest hole -1.680,  1-sigma level  0.201
Q1    1   0.4802  0.9618  0.6788  11.00000  0.05    1.71
Q2    1   0.4798  0.8555  0.6759  11.00000  0.05    1.41
Q3    1   0.2422 -0.0410  0.4583  11.00000  0.05    0.72
Q4    1   0.2964  0.8236  0.5261  11.00000  0.05    0.70
Q5    1   0.2597  0.1063  0.3643  11.00000  0.05    0.66
Q6    1   0.2586 -0.0589  0.4972  11.00000  0.05    0.64
Q7    1   0.2644  0.7910  0.5195  11.00000  0.05    0.64
Q8    1   0.4980  0.8787  0.6024  11.00000  0.05    0.61
Q9    1   0.2942  0.7447  0.5026  11.00000  0.05    0.60
Q10   1   0.2569  0.8379  0.5445  11.00000  0.05    0.60
Q11   1   0.4831  0.4011  0.2761  11.00000  0.05    0.59
Q12   1   0.5001  0.8178  0.4207  11.00000  0.05    0.59
Q13   1   0.2568  0.8577  0.0012  11.00000  0.05    0.57
Q14   1   0.2555  0.8410  0.4800  11.00000  0.05    0.56
Q15   1   0.2603  0.0787  0.4997  11.00000  0.05    0.56
Q16   1   0.2967  0.7418  0.4596  11.00000  0.05    0.55
Q17   1   0.2548  0.7080  0.5149  11.00000  0.05    0.54
Q18   1   0.2533  0.7556  0.5568  11.00000  0.05    0.54
Q19   1   0.3031  0.8064  0.0719  11.00000  0.05    0.54
Q20   1   0.4645  0.4655  0.2471  11.00000  0.05    0.53

REM The information below was added by Olex2.
REM
REM R1 = 0.0239 for 16685 Fo > 4sig(Fo) and 0.0358 for all 175511 data
REM n/a parameters refined using n/a restraints
REM Highest difference peak 1.71, deepest hole -1.68
REM Mean Shift 0, Max Shift 0.

REM +++ Tabular Listing of Refinement Information +++
REM R1_all = 0.0358
REM R1_gt = 0.0239
REM wR_ref = 0.0767
REM GOOF = 1.211
REM Shift_max = 0
REM Shift_mean = 0
REM Reflections_all = 175511
REM Reflections_gt = 16685
REM Parameters = n/a
REM Hole = -1.68
REM Peak = 1.71
REM Flack = n/a

