data_mrmn-b
_audit_creation_date              2014-05-20
_audit_creation_method
;
Olex2 1.2
(compiled 2014.03.20 svn.r2918 for OlexSys, GUI svn.r4816)
;
_shelxl_version_number            2013-4
_publ_contact_author_address      ?
_publ_contact_author_email        ?
_publ_contact_author_name         ''
_publ_contact_author_phone        ?
_publ_section_references
;
Dolomanov, O.V., Bourhis, L.J., Gildea, R.J, Howard, J.A.K. & Puschmann, H.
 (2009), J. Appl. Cryst. 42, 339-341.

Palatinus, L. & Chapuis, G. (2007). J. Appl. Cryst., 40, 786-790;
Palatinus, L. & van der Lee, A. (2008). J. Appl. Cryst. 41, 975-984;
Palatinus, L., Prathapa, S. J. & van Smaalen, S. (2012). J. Appl. Cryst. 45,
 575-580.

Sheldrick, G.M. (2008). Acta Cryst. A64, 112-122.
;
_chemical_name_common             ?
_chemical_name_systematic
;
 ?
;
_chemical_formula_moiety          '2(C30 H47 O P2 S), 2(C9 H5 F6 O4 S2), C6 H6'
_chemical_formula_sum             'C84 H110 F12 O10 P4 S6'
_chemical_formula_weight          1823.95
_chemical_melting_point           ?
loop_
  _atom_type_symbol
  _atom_type_description
  _atom_type_scat_dispersion_real
  _atom_type_scat_dispersion_imag
  _atom_type_scat_source
 'C' 'C' 0.0181 0.0091 'International Tables Vol C Tables 4.2.6.8 and 6.1.1.4'
 'H' 'H' 0.0000 0.0000 'International Tables Vol C Tables 4.2.6.8 and 6.1.1.4'
 'F' 'F' 0.0727 0.0534 'International Tables Vol C Tables 4.2.6.8 and 6.1.1.4'
 'O' 'O' 0.0492 0.0322 'International Tables Vol C Tables 4.2.6.8 and 6.1.1.4'
 'P' 'P' 0.2955 0.4335 'International Tables Vol C Tables 4.2.6.8 and 6.1.1.4'
 'S' 'S' 0.3331 0.5567 'International Tables Vol C Tables 4.2.6.8 and 6.1.1.4'

_shelx_space_group_comment
;
The symmetry employed for this shelxl refinement is uniquely defined
by the following loop, which should always be used as a source of
symmetry information in preference to the above space-group names.
They are only intended as comments.
;
_space_group_crystal_system       'monoclinic'
_space_group_IT_number            14
_space_group_name_H-M_alt         'P 1 21/n 1'
_space_group_name_Hall            '-P 2yn'
loop_
  _space_group_symop_operation_xyz
 'x, y, z'
 '-x+1/2, y+1/2, -z+1/2'
 '-x, -y, -z'
 'x-1/2, -y-1/2, z-1/2'

_cell_length_a                    14.19615(12)
_cell_length_b                    39.4563(3)
_cell_length_c                    16.35832(15)
_cell_angle_alpha                 90
_cell_angle_beta                  100.1751(8)
_cell_angle_gamma                 90
_cell_volume                      9018.64(13)
_cell_formula_units_Z             4
_cell_measurement_reflns_used     32711
_cell_measurement_temperature     284.87(10)
_cell_measurement_theta_max       73.7519
_cell_measurement_theta_min       2.7421
_shelx_estimated_absorpt_T_max    ?
_shelx_estimated_absorpt_T_min    ?
_exptl_absorpt_coefficient_mu     2.749
_exptl_absorpt_correction_T_max   1.00000
_exptl_absorpt_correction_T_min   0.74514
_exptl_absorpt_correction_type    multi-scan
_exptl_absorpt_process_details
;
CrysAlisPro, Agilent Technologies,
Version 1.171.35.19 (release 27-10-2011 CrysAlis171 .NET)
(compiled Oct 27 2011,15:02:11)
Empirical absorption correction using spherical harmonics,
 implemented in SCALE3 ABSPACK scaling algorithm.
;
_exptl_crystal_colour             ?
_exptl_crystal_density_diffrn     1.343
_exptl_crystal_density_meas       ?
_exptl_crystal_density_method     ?
_exptl_crystal_description        ?
_exptl_crystal_F_000              3832
_exptl_crystal_size_max           0.49
_exptl_crystal_size_mid           0.16
_exptl_crystal_size_min           0.14
_exptl_special_details
;
 ?
;
_exptl_transmission_factor_max    ?
_exptl_transmission_factor_min    ?
_diffrn_reflns_av_R_equivalents   0.0261
_diffrn_reflns_av_unetI/netI      0.0219
_diffrn_reflns_Laue_measured_fraction_full 0.999
_diffrn_reflns_Laue_measured_fraction_max 0.981
_diffrn_reflns_limit_h_max        17
_diffrn_reflns_limit_h_min        -17
_diffrn_reflns_limit_k_max        48
_diffrn_reflns_limit_k_min        -48
_diffrn_reflns_limit_l_max        20
_diffrn_reflns_limit_l_min        -20
_diffrn_reflns_number             69203
_diffrn_reflns_point_group_measured_fraction_full 0.999
_diffrn_reflns_point_group_measured_fraction_max 0.981
_diffrn_reflns_theta_full         67.684
_diffrn_reflns_theta_max          73.916
_diffrn_reflns_theta_min          2.964
_diffrn_ambient_temperature       284.87(10)
_diffrn_detector_area_resol_mean  10.6501
_diffrn_measured_fraction_theta_full 0.999
_diffrn_measured_fraction_theta_max 0.981
_diffrn_measurement_device_type   'SuperNova, Dual, Cu at zero, Atlas'
_diffrn_measurement_method        '\w scans'
_diffrn_orient_matrix_UB_11       -0.0689825000
_diffrn_orient_matrix_UB_12       0.0204899000
_diffrn_orient_matrix_UB_13       -0.0649138000
_diffrn_orient_matrix_UB_21       -0.0013475000
_diffrn_orient_matrix_UB_22       -0.0291428000
_diffrn_orient_matrix_UB_23       -0.0628501000
_diffrn_orient_matrix_UB_31       -0.0860798000
_diffrn_orient_matrix_UB_32       -0.0159654000
_diffrn_orient_matrix_UB_33       0.0313518000
_diffrn_radiation_monochromator   mirror
_diffrn_radiation_type            CuK\a
_diffrn_radiation_wavelength      1.54184
_diffrn_source                    'SuperNova (Cu) X-ray Source'
_reflns_Friedel_coverage          0.000
_reflns_Friedel_fraction_full     .
_reflns_Friedel_fraction_max      .
_reflns_number_gt                 15662
_reflns_number_total              17960
_reflns_odcompleteness_completeness 98.11
_reflns_odcompleteness_iscentric  1
_reflns_odcompleteness_theta      73.75
_reflns_special_details
;
 Reflections were merged by SHELXL according to the crystal
 class for the calculation of statistics and refinement.
 
 _reflns_Friedel_fraction is defined as the number of unique
 Friedel pairs measured divided by the number that would be
 possible theoretically, ignoring centric projections and
 systematic absences.
;
_reflns_threshold_expression      'I > 2\s(I)'
_computing_cell_refinement
;
CrysAlisPro, Agilent Technologies,
Version 1.171.35.19 (release 27-10-2011 CrysAlis171 .NET)
(compiled Oct 27 2011,15:02:11)
;
_computing_data_collection
;
CrysAlisPro, Agilent Technologies,
Version 1.171.35.19 (release 27-10-2011 CrysAlis171 .NET)
(compiled Oct 27 2011,15:02:11)
;
_computing_data_reduction
;
CrysAlisPro, Agilent Technologies,
Version 1.171.35.19 (release 27-10-2011 CrysAlis171 .NET)
(compiled Oct 27 2011,15:02:11)
;
_computing_molecular_graphics     'Olex2 (Dolomanov et al., 2009)'
_computing_publication_material   'Olex2 (Dolomanov et al., 2009)'
_computing_structure_refinement   'ShelXL (Sheldrick, 2008)'
_computing_structure_solution
;
Superflip (Palatinus & Chapuis, 2007;Palatinus & van der Lee, 2008;
Palatinus et al., 2012)
;
_refine_diff_density_max          1.110
_refine_diff_density_min          -0.558
_refine_diff_density_rms          0.072
_refine_ls_extinction_coef        .
_refine_ls_extinction_method      none
_refine_ls_goodness_of_fit_ref    1.063
_refine_ls_hydrogen_treatment     mixed
_refine_ls_matrix_type            full
_refine_ls_number_parameters      1208
_refine_ls_number_reflns          17960
_refine_ls_number_restraints      291
_refine_ls_R_factor_all           0.0624
_refine_ls_R_factor_gt            0.0551
_refine_ls_restrained_S_all       1.057
_refine_ls_shift/su_max           0.001
_refine_ls_shift/su_mean          0.000
_refine_ls_structure_factor_coef  Fsqd
_refine_ls_weighting_details
'w=1/[\s^2^(Fo^2^)+(0.0670P)^2^+14.2333P] where P=(Fo^2^+2Fc^2^)/3'
_refine_ls_weighting_scheme       calc
_refine_ls_wR_factor_gt           0.1481
_refine_ls_wR_factor_ref          0.1539
_refine_special_details
;
 ?
;
_olex2_refinement_description
;
1. Fixed Uiso
 At 1.2 times of:
  All C(H) groups
 At 1.5 times of:
  All C(H,H,H) groups
2. Rigid body (RIGU) restrains
 C76, S7, O14, O13, C80, S6, C73, S8, S5, F13, F15, F14, O9, O10, C77, C74,
 C72, O11, O12, C79, F17, O7, O8, C78, F9, F7, F8, H74, C75, C71, H72, F18, F16,
  F11, F10, F12, C70, H75, H71, H70
 with sigma for 1-2 distances of 0.004 and sigma for 1-3 distances of 0.004
3. Others
 Sof(C79)=Sof(C78)=Sof(O11)=Sof(O8)=Sof(O7)=Sof(O12)=Sof(F12)=Sof(F18)=
 Sof(F10)=Sof(F16)=Sof(F17)=Sof(F11)=Sof(S5)=Sof(S8)=1-FVAR(1)
 Sof(C80)=Sof(C77)=Sof(O14)=Sof(O13)=Sof(O9)=Sof(O10)=Sof(F9)=Sof(F13)=Sof(F7)=
 Sof(F15)=Sof(F14)=Sof(F8)=Sof(S7)=Sof(S6)=FVAR(1)
4.a Aromatic/amide H refined with riding coordinates:
 C25(H25), C18(H18), C20(H20), C27(H27), C59(H59), C48(H48), C50(H50),
 C57(H57), C70(H70), C74(H74), C71(H71), C75(H75), C72(H72), C65(H65), C61(H61),
  C69(H69), C62(H62), C63(H63), C83(H83), C86(H86), C82(H82), C84(H84),
 C81(H81), C85(H85)
4.b Idealised Me refined as rotating group:
 C30(H30A,H30B,H30C), C16(H16A,H16B,H16C), C8(H8A,H8B,H8C), C14(H14A,H14B,
 H14C), C12(H12A,H12B,H12C), C15(H15A,H15B,H15C), C29(H29A,H29B,H29C), C2(H2A,
 H2B,H2C), C11(H11A,H11B,H11C), C3(H3A,H3B,H3C), C6(H6A,H6B,H6C), C10(H10A,H10B,
 H10C), C7(H7A,H7B,H7C), C4(H4A,H4B,H4C), C45(H45A,H45B,H45C), C53(H53A,H53B,
 H53C), C46(H46A,H46B,H46C), C44(H44A,H44B,H44C), C38(H38A,H38B,H38C), C60(H60A,
 H60B,H60C), C32(H32A,H32B,H32C), C42(H42A,H42B,H42C), C40(H40A,H40B,H40C),
 C34(H34A,H34B,H34C), C37(H37A,H37B,H37C), C41(H41A,H41B,H41C), C36(H36A,H36B,
 H36C), C33(H33A,H33B,H33C)
;
_atom_sites_solution_hydrogens    mixed
_atom_sites_solution_primary      iterative
_atom_sites_solution_secondary    ?
loop_
  _atom_site_label
  _atom_site_type_symbol
  _atom_site_fract_x
  _atom_site_fract_y
  _atom_site_fract_z
  _atom_site_U_iso_or_equiv
  _atom_site_adp_type
  _atom_site_occupancy
  _atom_site_site_symmetry_order
  _atom_site_calc_flag
  _atom_site_refinement_flags_posn
  _atom_site_refinement_flags_adp
  _atom_site_refinement_flags_occupancy
  _atom_site_disorder_assembly
  _atom_site_disorder_group
 H1 H 0.311(2) 0.3859(8) 0.633(2) 0.038(9) Uiso 1 1 d . . . . .
 C13 C 0.3865(2) 0.42766(8) 0.55289(18) 0.0374(6) Uani 1 1 d . . . . .
 C30 C -0.0014(2) 0.45439(9) 0.3684(2) 0.0433(7) Uani 1 1 d . . . . .
 H30A H -0.0550 0.4592 0.3951 0.065 Uiso 1 1 calc GR . . . .
 H30B H -0.0240 0.4483 0.3115 0.065 Uiso 1 1 calc GR . . . .
 H30C H 0.0384 0.4741 0.3706 0.065 Uiso 1 1 calc GR . . . .
 C17 C 0.2822(2) 0.29376(7) 0.56633(18) 0.0361(6) Uani 1 1 d . . . . .
 C22 C 0.2066(2) 0.31323(7) 0.52514(18) 0.0342(6) Uani 1 1 d . . . . .
 C16 C 0.4789(2) 0.42276(9) 0.6163(2) 0.0445(7) Uani 1 1 d . . . . .
 H16A H 0.4801 0.4385 0.6612 0.067 Uiso 1 1 calc GR . . . .
 H16B H 0.5332 0.4267 0.5898 0.067 Uiso 1 1 calc GR . . . .
 H16C H 0.4813 0.4000 0.6375 0.067 Uiso 1 1 calc GR . . . .
 C8 C 0.5649(3) 0.32064(12) 0.6913(4) 0.0863(17) Uani 1 1 d . . . . .
 H8A H 0.5511 0.3440 0.6776 0.129 Uiso 1 1 calc GR . . . .
 H8B H 0.6282 0.3153 0.6822 0.129 Uiso 1 1 calc GR . . . .
 H8C H 0.5610 0.3169 0.7486 0.129 Uiso 1 1 calc GR . . . .
 C24 C 0.1825(2) 0.40474(7) 0.52009(16) 0.0301(6) Uani 1 1 d . . . . .
 C28 C 0.0797(2) 0.36492(8) 0.43600(17) 0.0348(6) Uani 1 1 d . . . . .
 C9 C 0.2493(2) 0.43586(7) 0.68735(17) 0.0317(6) Uani 1 1 d . . . . .
 C14 C 0.3884(3) 0.40321(13) 0.4796(2) 0.0670(13) Uani 1 1 d . . . . .
 H14A H 0.3900 0.3803 0.4992 0.100 Uiso 1 1 calc GR . . . .
 H14B H 0.4442 0.4076 0.4557 0.100 Uiso 1 1 calc GR . . . .
 H14C H 0.3321 0.4066 0.4384 0.100 Uiso 1 1 calc GR . . . .
 C5 C 0.4920(3) 0.29796(9) 0.6364(3) 0.0515(9) Uani 1 1 d . . . . .
 C12 C 0.2087(3) 0.47121(9) 0.6641(2) 0.0484(8) Uani 1 1 d . . . . .
 H12A H 0.2549 0.4843 0.6415 0.073 Uiso 1 1 calc GR . . . .
 H12B H 0.1945 0.4823 0.7128 0.073 Uiso 1 1 calc GR . . . .
 H12C H 0.1512 0.4692 0.6236 0.073 Uiso 1 1 calc GR . . . .
 C15 C 0.3769(3) 0.46433(11) 0.5248(3) 0.0655(12) Uani 1 1 d . . . . .
 H15A H 0.3189 0.4671 0.4851 0.098 Uiso 1 1 calc GR . . . .
 H15B H 0.4307 0.4705 0.4997 0.098 Uiso 1 1 calc GR . . . .
 H15C H 0.3749 0.4787 0.5719 0.098 Uiso 1 1 calc GR . . . .
 C29 C 0.2305(3) 0.20924(8) 0.4517(2) 0.0548(9) Uani 1 1 d . . . . .
 H29A H 0.2918 0.2059 0.4359 0.082 Uiso 1 1 calc GR . . . .
 H29B H 0.1808 0.2041 0.4055 0.082 Uiso 1 1 calc GR . . . .
 H29C H 0.2246 0.1946 0.4974 0.082 Uiso 1 1 calc GR . . . .
 C21 C 0.1386(2) 0.29987(8) 0.46164(18) 0.0353(6) Uani 1 1 d . . . . .
 C25 C 0.1326(2) 0.43155(7) 0.47582(17) 0.0322(6) Uani 1 1 d . . . . .
 H25 H 0.1513 0.4538 0.4891 0.039 Uiso 1 1 calc R . . . .
 C18 C 0.2866(2) 0.25997(8) 0.5415(2) 0.0425(7) Uani 1 1 d . . . . .
 H18 H 0.3355 0.2463 0.5691 0.051 Uiso 1 1 calc R . . . .
 C26 C 0.0558(2) 0.42541(8) 0.41254(17) 0.0338(6) Uani 1 1 d . . . . .
 C2 C 0.3233(4) 0.25627(10) 0.7518(3) 0.0637(11) Uani 1 1 d . . . . .
 H2A H 0.2841 0.2476 0.7023 0.096 Uiso 1 1 calc GR . . . .
 H2B H 0.2957 0.2501 0.7992 0.096 Uiso 1 1 calc GR . . . .
 H2C H 0.3864 0.2468 0.7573 0.096 Uiso 1 1 calc GR . . . .
 C23 C 0.1539(2) 0.37125(7) 0.50167(17) 0.0321(6) Uani 1 1 d . . . . .
 C11 C 0.3364(2) 0.43816(9) 0.75712(19) 0.0429(7) Uani 1 1 d . . . . .
 H11A H 0.3646 0.4161 0.7673 0.064 Uiso 1 1 calc GR . . . .
 H11B H 0.3167 0.4464 0.8067 0.064 Uiso 1 1 calc GR . . . .
 H11C H 0.3825 0.4535 0.7411 0.064 Uiso 1 1 calc GR . . . .
 C19 C 0.2213(3) 0.24592(8) 0.4774(2) 0.0435(7) Uani 1 1 d . . . . .
 C20 C 0.1473(2) 0.26635(8) 0.43780(19) 0.0409(7) Uani 1 1 d . . . . .
 H20 H 0.1028 0.2574 0.3946 0.049 Uiso 1 1 calc R . . . .
 C27 C 0.0322(2) 0.39199(8) 0.39155(17) 0.0349(6) Uani 1 1 d . . . . .
 H27 H -0.0164 0.3875 0.3468 0.042 Uiso 1 1 calc R . . . .
 C3 C 0.2284(4) 0.30858(12) 0.7462(3) 0.0698(12) Uani 1 1 d . . . . .
 H3A H 0.2302 0.3329 0.7470 0.105 Uiso 1 1 calc GR . . . .
 H3B H 0.2054 0.3005 0.7944 0.105 Uiso 1 1 calc GR . . . .
 H3C H 0.1863 0.3010 0.6970 0.105 Uiso 1 1 calc GR . . . .
 C1 C 0.3291(3) 0.29476(9) 0.7463(2) 0.0507(9) Uani 1 1 d . . . . .
 C6 C 0.5229(3) 0.26127(10) 0.6587(4) 0.0831(16) Uani 1 1 d . . . . .
 H6A H 0.5265 0.2578 0.7172 0.125 Uiso 1 1 calc GR . . . .
 H6B H 0.5845 0.2572 0.6441 0.125 Uiso 1 1 calc GR . . . .
 H6C H 0.4769 0.2459 0.6286 0.125 Uiso 1 1 calc GR . . . .
 C10 C 0.1715(3) 0.41399(11) 0.7154(2) 0.0570(10) Uani 1 1 d . . . . .
 H10A H 0.1169 0.4128 0.6716 0.085 Uiso 1 1 calc GR . . . .
 H10B H 0.1531 0.4239 0.7638 0.085 Uiso 1 1 calc GR . . . .
 H10C H 0.1960 0.3916 0.7284 0.085 Uiso 1 1 calc GR . . . .
 C7 C 0.5005(4) 0.30467(17) 0.5465(3) 0.0894(16) Uani 1 1 d . . . . .
 H7A H 0.4619 0.2887 0.5111 0.134 Uiso 1 1 calc GR . . . .
 H7B H 0.5662 0.3024 0.5401 0.134 Uiso 1 1 calc GR . . . .
 H7C H 0.4789 0.3272 0.5314 0.134 Uiso 1 1 calc GR . . . .
 C4 C 0.3937(4) 0.30849(14) 0.8245(3) 0.0892(17) Uani 1 1 d . . . . .
 H4A H 0.4582 0.3010 0.8254 0.134 Uiso 1 1 calc GR . . . .
 H4B H 0.3715 0.3002 0.8729 0.134 Uiso 1 1 calc GR . . . .
 H4C H 0.3917 0.3328 0.8239 0.134 Uiso 1 1 calc GR . . . .
 O1 O 0.19825(15) 0.34612(5) 0.55409(12) 0.0364(5) Uani 1 1 d . . . . .
 P1 P 0.28469(5) 0.41289(2) 0.59995(4) 0.02775(15) Uani 1 1 d . . . . .
 P2 P 0.36824(6) 0.31376(2) 0.65088(5) 0.03884(18) Uani 1 1 d . . . . .
 S1 S 0.03772(6) 0.32306(2) 0.41409(5) 0.04333(19) Uani 1 1 d . . . . .
 H3 H 0.264(2) 0.3743(8) 0.1270(19) 0.030(8) Uiso 1 1 d . . . . .
 C45 C 0.4241(2) 0.41460(9) 0.1185(2) 0.0416(7) Uani 1 1 d . . . . .
 H45A H 0.4147 0.4328 0.1553 0.062 Uiso 1 1 calc GR . . . .
 H45B H 0.4826 0.4182 0.0980 0.062 Uiso 1 1 calc GR . . . .
 H45C H 0.4276 0.3935 0.1481 0.062 Uiso 1 1 calc GR . . . .
 C59 C 0.0122(2) 0.36504(8) -0.13370(17) 0.0341(6) Uani 1 1 d . . . . .
 H59 H -0.0309 0.3578 -0.1799 0.041 Uiso 1 1 calc R . . . .
 C53 C 0.2744(3) 0.19692(8) -0.0431(2) 0.0489(8) Uani 1 1 d . . . . .
 H53A H 0.3343 0.1905 -0.0097 0.073 Uiso 1 1 calc GR . . . .
 H53B H 0.2800 0.1963 -0.1007 0.073 Uiso 1 1 calc GR . . . .
 H53C H 0.2253 0.1815 -0.0335 0.073 Uiso 1 1 calc GR . . . .
 C46 C 0.3262(2) 0.44770(8) 0.0014(2) 0.0413(7) Uani 1 1 d . . . . .
 H46A H 0.2724 0.4463 -0.0433 0.062 Uiso 1 1 calc GR . . . .
 H46B H 0.3827 0.4534 -0.0205 0.062 Uiso 1 1 calc GR . . . .
 H46C H 0.3145 0.4649 0.0400 0.062 Uiso 1 1 calc GR . . . .
 C44 C 0.3575(2) 0.38581(9) -0.0162(2) 0.0418(7) Uani 1 1 d . . . . .
 H44A H 0.3606 0.3641 0.0106 0.063 Uiso 1 1 calc GR . . . .
 H44B H 0.4167 0.3901 -0.0351 0.063 Uiso 1 1 calc GR . . . .
 H44C H 0.3058 0.3859 -0.0628 0.063 Uiso 1 1 calc GR . . . .
 C47 C 0.2824(2) 0.28309(7) 0.06720(18) 0.0353(6) Uani 1 1 d . . . . .
 C51 C 0.1416(2) 0.28022(7) -0.04166(18) 0.0338(6) Uani 1 1 d . . . . .
 C54 C 0.0604(2) 0.34109(7) -0.07939(17) 0.0313(6) Uani 1 1 d . . . . .
 C43 C 0.3405(2) 0.41355(7) 0.04578(18) 0.0331(6) Uani 1 1 d . . . . .
 C38 C 0.5506(3) 0.32426(11) 0.1960(3) 0.0742(14) Uani 1 1 d . . . . .
 H38A H 0.5331 0.3458 0.1704 0.111 Uiso 1 1 calc GR . . . .
 H38B H 0.6168 0.3198 0.1949 0.111 Uiso 1 1 calc GR . . . .
 H38C H 0.5405 0.3247 0.2525 0.111 Uiso 1 1 calc GR . . . .
 C52 C 0.1992(2) 0.29756(7) 0.02229(17) 0.0317(6) Uani 1 1 d . . . . .
 C60 C -0.0316(2) 0.42492(9) -0.17718(19) 0.0436(7) Uani 1 1 d . . . . .
 H60A H -0.0396 0.4170 -0.2335 0.065 Uiso 1 1 calc GR . . . .
 H60B H 0.0007 0.4464 -0.1727 0.065 Uiso 1 1 calc GR . . . .
 H60C H -0.0933 0.4275 -0.1614 0.065 Uiso 1 1 calc GR . . . .
 C35 C 0.4884(3) 0.29617(9) 0.1480(3) 0.0532(9) Uani 1 1 d . . . . .
 C32 C 0.3065(3) 0.25350(9) 0.2533(2) 0.0537(9) Uani 1 1 d . . . . .
 H32A H 0.2694 0.2443 0.2034 0.081 Uiso 1 1 calc GR . . . .
 H32B H 0.2762 0.2481 0.2997 0.081 Uiso 1 1 calc GR . . . .
 H32C H 0.3696 0.2439 0.2619 0.081 Uiso 1 1 calc GR . . . .
 C55 C 0.12618(19) 0.35159(7) -0.01137(16) 0.0267(5) Uani 1 1 d . . . . .
 C58 C 0.0270(2) 0.39956(7) -0.12035(17) 0.0327(6) Uani 1 1 d . . . . .
 C48 C 0.3040(2) 0.25005(7) 0.04458(19) 0.0381(7) Uani 1 1 d . . . . .
 H48 H 0.3579 0.2395 0.0743 0.046 Uiso 1 1 calc R . . . .
 C56 C 0.14399(18) 0.38624(7) 0.00189(15) 0.0253(5) Uani 1 1 d . . . . .
 C42 C 0.1555(2) 0.46090(7) 0.1335(2) 0.0397(7) Uani 1 1 d . . . . .
 H42A H 0.2119 0.4732 0.1262 0.060 Uiso 1 1 calc GR . . . .
 H42B H 0.1254 0.4722 0.1740 0.060 Uiso 1 1 calc GR . . . .
 H42C H 0.1118 0.4599 0.0816 0.060 Uiso 1 1 calc GR . . . .
 C40 C 0.0938(2) 0.40511(8) 0.17644(19) 0.0369(6) Uani 1 1 d . . . . .
 H40A H 0.0475 0.4053 0.1260 0.055 Uiso 1 1 calc GR . . . .
 H40B H 0.0668 0.4157 0.2199 0.055 Uiso 1 1 calc GR . . . .
 H40C H 0.1110 0.3821 0.1917 0.055 Uiso 1 1 calc GR . . . .
 C39 C 0.1834(2) 0.42479(7) 0.16323(16) 0.0301(6) Uani 1 1 d . . . . .
 C49 C 0.2487(2) 0.23236(7) -0.02010(19) 0.0386(7) Uani 1 1 d . . . . .
 C50 C 0.1676(2) 0.24812(7) -0.06369(19) 0.0382(7) Uani 1 1 d . . . . .
 H50 H 0.1304 0.2370 -0.1081 0.046 Uiso 1 1 calc R . . . .
 C34 C 0.2126(3) 0.30695(9) 0.2401(2) 0.0551(9) Uani 1 1 d . . . . .
 H34A H 0.2159 0.3312 0.2394 0.083 Uiso 1 1 calc GR . . . .
 H34B H 0.1866 0.2997 0.2875 0.083 Uiso 1 1 calc GR . . . .
 H34C H 0.1723 0.2991 0.1903 0.083 Uiso 1 1 calc GR . . . .
 C31 C 0.3132(3) 0.29222(8) 0.2450(2) 0.0494(9) Uani 1 1 d . . . . .
 C57 C 0.0937(2) 0.40980(7) -0.05280(16) 0.0291(5) Uani 1 1 d . . . . .
 H57 H 0.1052 0.4328 -0.0436 0.035 Uiso 1 1 calc R . . . .
 C37 C 0.5060(3) 0.29776(11) 0.0563(3) 0.0622(10) Uani 1 1 d . . . . .
 H37A H 0.4777 0.2783 0.0264 0.093 Uiso 1 1 calc GR . . . .
 H37B H 0.5735 0.2980 0.0560 0.093 Uiso 1 1 calc GR . . . .
 H37C H 0.4774 0.3180 0.0302 0.093 Uiso 1 1 calc GR . . . .
 C41 C 0.2561(2) 0.42526(9) 0.24482(19) 0.0419(7) Uani 1 1 d . . . . .
 H41A H 0.2761 0.4025 0.2598 0.063 Uiso 1 1 calc GR . . . .
 H41B H 0.2269 0.4350 0.2880 0.063 Uiso 1 1 calc GR . . . .
 H41C H 0.3107 0.4386 0.2377 0.063 Uiso 1 1 calc GR . . . .
 C36 C 0.5264(3) 0.26173(10) 0.1849(3) 0.0680(12) Uani 1 1 d . . . . .
 H36A H 0.5236 0.2612 0.2431 0.102 Uiso 1 1 calc GR . . . .
 H36B H 0.5915 0.2588 0.1774 0.102 Uiso 1 1 calc GR . . . .
 H36C H 0.4877 0.2438 0.1571 0.102 Uiso 1 1 calc GR . . . .
 C33 C 0.3768(4) 0.30668(11) 0.3226(2) 0.0692(12) Uani 1 1 d . . . . .
 H33A H 0.4397 0.2970 0.3283 0.104 Uiso 1 1 calc GR . . . .
 H33B H 0.3497 0.3012 0.3708 0.104 Uiso 1 1 calc GR . . . .
 H33C H 0.3809 0.3308 0.3175 0.104 Uiso 1 1 calc GR . . . .
 O2 O 0.17231(14) 0.32934(5) 0.04788(11) 0.0307(4) Uani 1 1 d . . . . .
 P3 P 0.23449(5) 0.39934(2) 0.08688(4) 0.02511(14) Uani 1 1 d . . . . .
 P4 P 0.35683(6) 0.30847(2) 0.14975(5) 0.03961(19) Uani 1 1 d . . . . .
 S2 S 0.03211(5) 0.29770(2) -0.09308(5) 0.04011(18) Uani 1 1 d . . . . .
 C79 C 0.354(3) 0.6110(11) 0.617(3) 0.038(4) Uani 0.0717(15) 1 d . . P A 2
 C78 C 0.151(3) 0.5255(11) 0.405(3) 0.036(4) Uani 0.0717(15) 1 d . . P A 2
 C76 C 0.2103(2) 0.58574(7) 0.45445(18) 0.0305(6) Uani 1 1 d . . . . .
 C70 C 0.0767(2) 0.67191(7) 0.32359(19) 0.0393(7) Uani 1 1 d . . . . .
 H70 H 0.0481 0.6909 0.2960 0.047 Uiso 1 1 calc R . . . .
 C74 C 0.0722(2) 0.62530(7) 0.41689(18) 0.0328(6) Uani 1 1 d . . . . .
 H74 H 0.0397 0.6130 0.4518 0.039 Uiso 1 1 calc R . . . .
 C71 C 0.1672(2) 0.66235(8) 0.3135(2) 0.0411(7) Uani 1 1 d . . . . .
 H71 H 0.1996 0.6750 0.2793 0.049 Uiso 1 1 calc R . . . .
 C73 C 0.1635(2) 0.61547(6) 0.40758(17) 0.0296(5) Uani 1 1 d . . . . .
 C75 C 0.0286(2) 0.65338(7) 0.37442(19) 0.0386(7) Uani 1 1 d . . . . .
 H75 H -0.0330 0.6596 0.3804 0.046 Uiso 1 1 calc R . . . .
 C80 C 0.2729(3) 0.59918(8) 0.6232(2) 0.0358(7) Uani 0.9283(15) 1 d . . P A 1
 C72 C 0.2105(2) 0.63390(7) 0.35444(19) 0.0375(6) Uani 1 1 d . . . . .
 H72 H 0.2710 0.6272 0.3462 0.045 Uiso 1 1 calc R . . . .
 C77 C 0.2242(2) 0.52838(8) 0.3543(2) 0.0346(6) Uani 0.9283(15) 1 d . . P A 1
 O14 O 0.35545(16) 0.62257(6) 0.50814(14) 0.0383(5) Uani 0.9283(15) 1 d . . P
 A 1
 O11 O 0.191(4) 0.6146(11) 0.619(4) 0.030(6) Uani 0.0717(15) 1 d . . P A 2
 O13 O 0.36852(16) 0.56118(6) 0.53803(14) 0.0378(5) Uani 0.9283(15) 1 d . . P
 A 1
 O8 O 0.266(2) 0.5650(7) 0.3444(18) 0.037(5) Uani 0.0717(15) 1 d . . P A 2
 O7 O 0.330(2) 0.5382(7) 0.4808(17) 0.034(5) Uani 0.0717(15) 1 d . . P A 2
 O12 O 0.241(2) 0.5605(8) 0.620(2) 0.030(5) Uani 0.0717(15) 1 d . . P A 2
 O9 O 0.1871(2) 0.52328(6) 0.50156(15) 0.0366(5) Uani 0.9283(15) 1 d . . P A 1
 O10 O 0.0654(2) 0.54903(9) 0.3923(2) 0.0359(7) Uani 0.9283(15) 1 d . . P A 1
 F9 F 0.1905(2) 0.49743(7) 0.3348(2) 0.0600(7) Uani 0.9283(15) 1 d . . P A 1
 F12 F 0.079(3) 0.5431(11) 0.373(2) 0.034(6) Uani 0.0717(15) 1 d . . P A 2
 F13 F 0.2061(3) 0.62370(7) 0.6143(2) 0.0474(8) Uani 0.9283(15) 1 d . . P A 1
 F18 F 0.3670(19) 0.6404(7) 0.5763(19) 0.051(6) Uani 0.0717(15) 1 d . . P A 2
 F7 F 0.21398(17) 0.54769(6) 0.28736(12) 0.0521(6) Uani 0.9283(15) 1 d . . P A
 1
 F10 F 0.165(3) 0.5071(8) 0.3069(19) 0.041(6) Uani 0.0717(15) 1 d . . P A 2
 F15 F 0.3461(2) 0.60904(10) 0.6802(2) 0.0516(8) Uani 0.9283(15) 1 d . . P A 1
 F16 F 0.4244(17) 0.5904(7) 0.5944(17) 0.045(5) Uani 0.0717(15) 1 d . . P A 2
 F14 F 0.23604(17) 0.57167(6) 0.65232(13) 0.0432(5) Uani 0.9283(15) 1 d . . P
 A 1
 F17 F 0.377(3) 0.6113(14) 0.688(3) 0.045(7) Uani 0.0717(15) 1 d . . P A 2
 F8 F 0.31722(14) 0.52476(5) 0.38190(12) 0.0443(5) Uani 0.9283(15) 1 d . . P A
 1
 F11 F 0.137(2) 0.5157(6) 0.4815(15) 0.032(5) Uani 0.0717(15) 1 d . . P A 2
 S5 S 0.2563(7) 0.5568(2) 0.4285(6) 0.031(2) Uani 0.0717(15) 1 d . . P A 2
 S8 S 0.2382(7) 0.5933(2) 0.5790(7) 0.0275(19) Uani 0.0717(15) 1 d . . P A 2
 S7 S 0.31088(5) 0.59105(2) 0.52280(4) 0.02955(17) Uani 0.9283(15) 1 d . . P A
 1
 S6 S 0.16279(5) 0.54662(2) 0.43414(4) 0.02793(17) Uani 0.9283(15) 1 d . . P A
 1
 C65 C 0.8897(2) 0.36106(7) 0.05128(19) 0.0346(6) Uani 1 1 d . . . . .
 H65 H 0.9027 0.3654 -0.0015 0.042 Uiso 1 1 calc R . . . .
 C61 C 0.9187(2) 0.32840(7) 0.17739(19) 0.0378(7) Uani 1 1 d . . . . .
 H61 H 0.9516 0.3113 0.2097 0.045 Uiso 1 1 calc R . . . .
 C69 C 0.9378(2) 0.33512(7) 0.0990(2) 0.0386(7) Uani 1 1 d . . . . .
 H69 H 0.9830 0.3222 0.0781 0.046 Uiso 1 1 calc R . . . .
 C66 C 0.77009(19) 0.40853(7) 0.03133(17) 0.0296(5) Uani 1 1 d . . . . .
 C62 C 0.8506(3) 0.34726(8) 0.20717(19) 0.0440(7) Uani 1 1 d . . . . .
 H62 H 0.8362 0.3425 0.2592 0.053 Uiso 1 1 calc R . . . .
 C64 C 0.82239(19) 0.38057(7) 0.08187(17) 0.0290(5) Uani 1 1 d . . . . .
 C67 C 0.6441(2) 0.39054(8) -0.1170(2) 0.0450(8) Uani 1 1 d . . . . .
 C68 C 0.8329(3) 0.47237(8) 0.1017(2) 0.0462(8) Uani 1 1 d . . . . .
 C63 C 0.8034(2) 0.37328(8) 0.16021(19) 0.0404(7) Uani 1 1 d . . . . .
 H63 H 0.7584 0.3861 0.1815 0.049 Uiso 1 1 calc R . . . .
 O3 O 0.59808(16) 0.43376(6) -0.01313(15) 0.0458(5) Uani 1 1 d . . . . .
 O4 O 0.61891(16) 0.37358(6) 0.02817(16) 0.0502(6) Uani 1 1 d . . . . .
 O5 O 0.77584(16) 0.46375(5) -0.05420(14) 0.0423(5) Uani 1 1 d . . . . .
 O6 O 0.92711(15) 0.43715(5) 0.01535(15) 0.0428(5) Uani 1 1 d . . . . .
 F5 F 0.69765(18) 0.36349(5) -0.12420(14) 0.0633(6) Uani 1 1 d . . . . .
 F6 F 0.55394(18) 0.38254(7) -0.14842(16) 0.0768(7) Uani 1 1 d . . . . .
 F4 F 0.67093(18) 0.41446(5) -0.16455(13) 0.0585(6) Uani 1 1 d . . . . .
 F2 F 0.88888(18) 0.49913(5) 0.09400(16) 0.0678(6) Uani 1 1 d . . . . .
 F1 F 0.74766(18) 0.48429(6) 0.10845(16) 0.0667(6) Uani 1 1 d . . . . .
 F3 F 0.8679(2) 0.45645(6) 0.17193(14) 0.0699(7) Uani 1 1 d . . . . .
 S3 S 0.65336(5) 0.40334(2) -0.00749(5) 0.03594(16) Uani 1 1 d . . . . .
 S4 S 0.82733(5) 0.44397(2) 0.01198(4) 0.03191(15) Uani 1 1 d . . . . .
 C83 C 0.5879(3) 0.47245(9) 0.2090(2) 0.0503(8) Uani 1 1 d . . . . .
 H83 H 0.6440 0.4606 0.2068 0.060 Uiso 1 1 calc R . . . .
 C86 C 0.4203(3) 0.50705(9) 0.2154(2) 0.0502(8) Uani 1 1 d . . . . .
 H86 H 0.3638 0.5186 0.2179 0.060 Uiso 1 1 calc R . . . .
 C82 C 0.5405(3) 0.49038(9) 0.1384(2) 0.0500(8) Uani 1 1 d . . . . .
 H82 H 0.5651 0.4906 0.0894 0.060 Uiso 1 1 calc R . . . .
 C84 C 0.5509(3) 0.47269(9) 0.2794(2) 0.0515(9) Uani 1 1 d . . . . .
 H84 H 0.5826 0.4612 0.3259 0.062 Uiso 1 1 calc R . . . .
 C81 C 0.4574(3) 0.50736(8) 0.1442(2) 0.0521(9) Uani 1 1 d . . . . .
 H81 H 0.4258 0.5193 0.0984 0.063 Uiso 1 1 calc R . . . .
 C85 C 0.4668(3) 0.48966(10) 0.2837(3) 0.0554(9) Uani 1 1 d . . . . .
 H85 H 0.4417 0.4893 0.3325 0.066 Uiso 1 1 calc R . . . .

loop_
  _atom_site_aniso_label
  _atom_site_aniso_U_11
  _atom_site_aniso_U_22
  _atom_site_aniso_U_33
  _atom_site_aniso_U_23
  _atom_site_aniso_U_13
  _atom_site_aniso_U_12
 C13 0.0304(15) 0.0510(18) 0.0319(15) 0.0014(13) 0.0086(12) 0.0057(12)
 C30 0.0378(16) 0.0530(19) 0.0373(16) 0.0109(14) 0.0015(13) 0.0086(14)
 C17 0.0414(16) 0.0307(14) 0.0335(15) -0.0026(11) -0.0004(12) -0.0037(12)
 C22 0.0391(16) 0.0299(14) 0.0320(14) -0.0043(11) 0.0019(12) -0.0034(11)
 C16 0.0323(16) 0.057(2) 0.0432(17) -0.0018(15) 0.0044(13) 0.0022(14)
 C8 0.047(2) 0.069(3) 0.130(5) -0.024(3) -0.018(3) 0.001(2)
 C24 0.0300(13) 0.0361(14) 0.0234(12) -0.0026(10) 0.0027(10) 0.0052(11)
 C28 0.0322(14) 0.0427(16) 0.0277(13) -0.0075(12) 0.0000(11) 0.0032(12)
 C9 0.0377(15) 0.0312(14) 0.0266(13) -0.0019(10) 0.0070(11) -0.0031(11)
 C14 0.042(2) 0.118(4) 0.0414(19) -0.028(2) 0.0075(15) 0.009(2)
 C5 0.0413(18) 0.0418(18) 0.068(2) -0.0035(16) 0.0015(16) 0.0021(14)
 C12 0.064(2) 0.0440(18) 0.0380(17) -0.0062(14) 0.0100(15) 0.0162(16)
 C15 0.043(2) 0.075(3) 0.083(3) 0.043(2) 0.0231(19) 0.0083(18)
 C29 0.075(3) 0.0305(16) 0.054(2) -0.0096(14) -0.0030(18) -0.0033(16)
 C21 0.0374(15) 0.0363(15) 0.0306(14) -0.0052(11) 0.0012(12) -0.0039(12)
 C25 0.0335(14) 0.0355(14) 0.0279(13) 0.0010(11) 0.0063(11) 0.0050(11)
 C18 0.0506(19) 0.0280(14) 0.0456(18) -0.0008(13) -0.0011(14) -0.0015(13)
 C26 0.0314(14) 0.0471(17) 0.0240(13) 0.0051(11) 0.0079(11) 0.0075(12)
 C2 0.092(3) 0.042(2) 0.058(2) 0.0116(17) 0.017(2) 0.0078(19)
 C23 0.0320(14) 0.0359(14) 0.0264(13) -0.0025(11) -0.0005(11) 0.0061(11)
 C11 0.0481(18) 0.0518(19) 0.0278(14) -0.0049(13) 0.0035(13) -0.0007(14)
 C19 0.059(2) 0.0300(15) 0.0398(17) -0.0051(12) 0.0036(14) -0.0059(14)
 C20 0.0487(18) 0.0394(16) 0.0316(15) -0.0052(12) -0.0014(13) -0.0096(13)
 C27 0.0269(13) 0.0542(18) 0.0225(13) -0.0007(12) 0.0016(10) 0.0045(12)
 C3 0.097(3) 0.065(3) 0.051(2) 0.0123(19) 0.024(2) 0.019(2)
 C1 0.074(2) 0.0381(17) 0.0354(17) 0.0023(13) -0.0034(16) 0.0046(16)
 C6 0.057(3) 0.042(2) 0.147(5) -0.001(3) 0.007(3) 0.0071(18)
 C10 0.059(2) 0.066(2) 0.052(2) -0.0101(18) 0.0269(18) -0.0243(19)
 C7 0.061(3) 0.126(5) 0.084(4) 0.023(3) 0.020(3) 0.011(3)
 C4 0.128(5) 0.087(3) 0.041(2) -0.001(2) -0.018(3) -0.021(3)
 O1 0.0435(12) 0.0287(10) 0.0321(10) -0.0048(8) -0.0070(8) 0.0033(8)
 P1 0.0309(3) 0.0261(3) 0.0247(3) -0.0015(2) 0.0008(3) 0.0025(3)
 P2 0.0442(4) 0.0267(3) 0.0396(4) -0.0022(3) -0.0092(3) 0.0008(3)
 S1 0.0379(4) 0.0430(4) 0.0436(4) -0.0113(3) -0.0078(3) -0.0010(3)
 C45 0.0332(15) 0.0461(17) 0.0442(17) -0.0042(14) 0.0030(13) -0.0062(13)
 C59 0.0311(14) 0.0425(16) 0.0267(13) -0.0040(11) -0.0001(11) 0.0054(12)
 C53 0.070(2) 0.0276(15) 0.0456(19) -0.0046(13) 0.0009(16) 0.0078(15)
 C46 0.0452(18) 0.0411(17) 0.0394(16) 0.0029(13) 0.0130(13) -0.0100(13)
 C44 0.0348(16) 0.0490(18) 0.0440(17) -0.0115(14) 0.0133(13) -0.0001(13)
 C47 0.0485(17) 0.0227(13) 0.0319(14) 0.0032(11) -0.0008(12) 0.0010(12)
 C51 0.0397(16) 0.0267(13) 0.0336(14) -0.0005(11) 0.0024(12) -0.0026(11)
 C54 0.0313(14) 0.0299(14) 0.0323(14) -0.0039(11) 0.0040(11) 0.0002(11)
 C43 0.0305(14) 0.0357(15) 0.0340(14) -0.0036(11) 0.0086(11) -0.0042(11)
 C38 0.055(2) 0.055(2) 0.101(4) 0.003(2) -0.017(2) -0.0117(19)
 C52 0.0429(16) 0.0204(12) 0.0304(14) 0.0007(10) 0.0029(12) -0.0001(11)
 C60 0.0455(18) 0.0497(18) 0.0329(15) 0.0055(13) -0.0007(13) 0.0143(14)
 C35 0.0451(19) 0.0457(19) 0.064(2) 0.0063(17) -0.0026(17) 0.0009(15)
 C32 0.077(3) 0.0364(17) 0.0441(19) 0.0099(14) 0.0008(17) 0.0055(16)
 C55 0.0283(13) 0.0269(13) 0.0251(12) 0.0010(10) 0.0049(10) 0.0027(10)
 C58 0.0327(14) 0.0390(15) 0.0265(13) 0.0028(11) 0.0059(11) 0.0093(12)
 C48 0.0475(17) 0.0265(14) 0.0375(16) 0.0042(11) 0.0001(13) 0.0053(12)
 C56 0.0266(12) 0.0282(13) 0.0216(12) -0.0009(9) 0.0060(10) 0.0013(10)
 C42 0.0554(19) 0.0263(14) 0.0392(16) -0.0020(12) 0.0135(14) 0.0057(13)
 C40 0.0431(17) 0.0367(15) 0.0337(15) -0.0005(12) 0.0143(13) -0.0005(12)
 C39 0.0392(15) 0.0265(13) 0.0250(13) -0.0023(10) 0.0063(11) 0.0012(11)
 C49 0.0533(19) 0.0239(13) 0.0372(15) 0.0005(11) 0.0038(13) 0.0018(12)
 C50 0.0512(18) 0.0259(14) 0.0354(15) -0.0044(11) 0.0022(13) -0.0051(12)
 C34 0.086(3) 0.0412(18) 0.0386(18) 0.0056(14) 0.0133(18) 0.0060(18)
 C31 0.077(3) 0.0330(16) 0.0324(16) 0.0047(13) -0.0055(16) 0.0031(15)
 C57 0.0333(14) 0.0277(13) 0.0277(13) 0.0025(10) 0.0093(11) 0.0040(10)
 C37 0.056(2) 0.052(2) 0.078(3) 0.015(2) 0.010(2) 0.0040(17)
 C41 0.0484(18) 0.0466(18) 0.0292(14) -0.0086(13) 0.0024(13) 0.0026(14)
 C36 0.058(2) 0.051(2) 0.086(3) 0.015(2) -0.011(2) 0.0009(18)
 C33 0.108(4) 0.057(2) 0.0342(19) -0.0010(16) -0.010(2) -0.005(2)
 O2 0.0405(11) 0.0224(9) 0.0267(9) -0.0014(7) -0.0012(8) 0.0024(8)
 P3 0.0299(3) 0.0210(3) 0.0240(3) -0.0001(2) 0.0037(2) 0.0006(2)
 P4 0.0497(5) 0.0271(4) 0.0358(4) -0.0006(3) -0.0095(3) 0.0042(3)
 S2 0.0381(4) 0.0321(4) 0.0454(4) -0.0087(3) -0.0057(3) -0.0035(3)
 C79 0.028(7) 0.039(9) 0.045(9) 0.007(6) 0.005(5) -0.006(5)
 C78 0.044(8) 0.030(8) 0.035(8) 0.005(6) 0.012(6) 0.001(6)
 C76 0.0324(13) 0.0231(12) 0.0364(14) 0.0041(10) 0.0074(11) 0.0037(10)
 C70 0.0536(18) 0.0231(13) 0.0354(15) 0.0000(11) -0.0083(13) 0.0026(12)
 C74 0.0382(15) 0.0267(13) 0.0323(14) -0.0008(11) 0.0028(11) 0.0041(11)
 C71 0.0514(18) 0.0300(14) 0.0386(16) 0.0092(12) -0.0009(13) -0.0088(12)
 C73 0.0369(14) 0.0206(11) 0.0299(13) 0.0009(10) 0.0024(11) 0.0001(10)
 C75 0.0416(16) 0.0327(14) 0.0379(15) -0.0041(12) -0.0031(12) 0.0096(12)
 C80 0.0383(17) 0.0370(16) 0.0319(17) -0.0039(13) 0.0052(14) 0.0014(13)
 C72 0.0379(15) 0.0327(14) 0.0411(16) 0.0079(12) 0.0046(12) -0.0019(12)
 C77 0.0429(17) 0.0276(14) 0.0344(15) -0.0016(11) 0.0101(13) 0.0042(12)
 O14 0.0334(11) 0.0398(12) 0.0407(12) 0.0019(10) 0.0037(9) -0.0064(9)
 O11 0.030(10) 0.025(10) 0.038(11) 0.004(9) 0.015(8) -0.006(8)
 O13 0.0362(12) 0.0427(12) 0.0344(11) 0.0027(9) 0.0052(9) 0.0132(9)
 O8 0.046(12) 0.029(10) 0.037(7) 0.007(6) 0.014(6) 0.002(8)
 O7 0.035(8) 0.034(10) 0.037(9) 0.006(7) 0.014(7) 0.010(7)
 O12 0.026(11) 0.028(7) 0.035(11) 0.006(6) 0.002(9) -0.004(7)
 O9 0.0483(15) 0.0273(11) 0.0369(12) 0.0079(9) 0.0149(11) 0.0038(11)
 O10 0.0339(15) 0.0296(16) 0.0448(19) -0.0031(12) 0.0088(12) -0.0020(11)
 F9 0.0717(19) 0.0357(14) 0.074(2) -0.0185(13) 0.0177(15) -0.0045(12)
 F12 0.043(9) 0.028(12) 0.034(11) 0.002(8) 0.009(7) -0.001(7)
 F13 0.061(2) 0.0385(17) 0.0462(13) -0.0025(14) 0.0209(13) 0.0128(14)
 F18 0.039(11) 0.048(9) 0.064(12) 0.016(8) 0.001(9) -0.011(7)
 F7 0.0676(14) 0.0603(13) 0.0311(10) 0.0106(9) 0.0164(9) 0.0251(11)
 F10 0.064(15) 0.028(12) 0.032(9) 0.007(8) 0.015(8) 0.010(10)
 F15 0.0496(19) 0.0670(17) 0.0365(13) -0.0114(11) 0.0033(14) -0.0057(16)
 F16 0.033(8) 0.049(10) 0.053(11) 0.009(8) 0.009(7) -0.004(7)
 F14 0.0541(13) 0.0443(12) 0.0335(11) 0.0025(9) 0.0137(10) -0.0022(10)
 F17 0.030(13) 0.057(14) 0.047(9) 0.007(7) 0.003(6) -0.009(10)
 F8 0.0436(11) 0.0516(12) 0.0394(10) -0.0010(9) 0.0123(8) 0.0167(9)
 F11 0.037(11) 0.029(10) 0.032(8) 0.005(7) 0.008(7) -0.011(8)
 S5 0.040(4) 0.024(3) 0.032(4) 0.004(3) 0.011(3) 0.005(3)
 S8 0.026(4) 0.029(4) 0.027(4) 0.004(3) 0.005(3) 0.000(3)
 S7 0.0296(4) 0.0308(4) 0.0284(3) 0.0009(3) 0.0056(3) 0.0033(3)
 S6 0.0338(4) 0.0209(3) 0.0309(4) 0.0015(3) 0.0106(3) 0.0017(3)
 C65 0.0384(15) 0.0282(13) 0.0390(15) 0.0045(11) 0.0116(12) 0.0022(11)
 C61 0.0445(17) 0.0254(13) 0.0396(16) 0.0066(11) -0.0031(13) 0.0031(12)
 C69 0.0349(15) 0.0295(14) 0.0523(18) 0.0038(13) 0.0096(13) 0.0037(12)
 C66 0.0288(13) 0.0285(13) 0.0319(14) 0.0048(11) 0.0063(11) 0.0025(10)
 C62 0.064(2) 0.0383(16) 0.0296(15) 0.0085(12) 0.0090(14) 0.0081(15)
 C64 0.0308(14) 0.0247(12) 0.0306(13) 0.0028(10) 0.0030(11) 0.0005(10)
 C67 0.0485(19) 0.0327(15) 0.0486(18) 0.0034(13) -0.0053(15) -0.0010(13)
 C68 0.052(2) 0.0329(16) 0.0513(19) -0.0016(14) 0.0036(15) 0.0054(14)
 C63 0.0515(19) 0.0366(16) 0.0351(15) 0.0050(12) 0.0130(13) 0.0121(13)
 O3 0.0344(11) 0.0453(12) 0.0581(14) 0.0102(11) 0.0095(10) 0.0108(9)
 O4 0.0343(12) 0.0491(13) 0.0666(16) 0.0204(12) 0.0073(11) -0.0076(10)
 O5 0.0459(12) 0.0339(11) 0.0451(12) 0.0134(9) 0.0029(10) -0.0010(9)
 O6 0.0325(11) 0.0373(11) 0.0597(14) 0.0068(10) 0.0112(10) -0.0003(9)
 F5 0.0915(17) 0.0399(11) 0.0540(12) -0.0046(9) 0.0007(11) 0.0145(11)
 F6 0.0599(14) 0.0877(18) 0.0716(16) -0.0097(13) -0.0191(12) -0.0165(13)
 F4 0.0899(16) 0.0431(11) 0.0403(11) 0.0052(8) 0.0054(10) -0.0026(10)
 F2 0.0766(16) 0.0385(11) 0.0853(17) -0.0105(11) 0.0059(13) -0.0150(10)
 F1 0.0722(15) 0.0542(13) 0.0780(16) -0.0146(11) 0.0249(12) 0.0145(11)
 F3 0.108(2) 0.0501(12) 0.0437(12) -0.0053(10) -0.0079(12) 0.0086(12)
 S3 0.0281(3) 0.0354(4) 0.0438(4) 0.0078(3) 0.0053(3) 0.0006(3)
 S4 0.0314(3) 0.0267(3) 0.0376(4) 0.0047(3) 0.0059(3) 0.0015(2)
 C83 0.0434(18) 0.0411(18) 0.064(2) 0.0000(16) 0.0032(16) 0.0008(14)
 C86 0.0454(19) 0.0391(17) 0.064(2) -0.0067(16) 0.0043(16) 0.0009(14)
 C82 0.053(2) 0.0412(18) 0.055(2) -0.0036(15) 0.0077(16) -0.0112(15)
 C84 0.051(2) 0.0435(18) 0.055(2) 0.0064(16) -0.0042(16) 0.0040(15)
 C81 0.056(2) 0.0340(16) 0.058(2) 0.0071(15) -0.0108(17) -0.0063(15)
 C85 0.061(2) 0.049(2) 0.056(2) -0.0035(17) 0.0123(18) -0.0028(17)

_geom_special_details
;
 All esds (except the esd in the dihedral angle between two l.s. planes)
 are estimated using the full covariance matrix.  The cell esds are taken
 into account individually in the estimation of esds in distances, angles
 and torsion angles; correlations between esds in cell parameters are only
 used when they are defined by crystal symmetry.  An approximate (isotropic)
 treatment of cell esds is used for estimating esds involving l.s. planes.
;
loop_
  _geom_bond_atom_site_label_1
  _geom_bond_atom_site_label_2
  _geom_bond_distance
  _geom_bond_site_symmetry_2
  _geom_bond_publ_flag
 C13 C16 1.533(4) . ?
 C13 C14 1.542(5) . ?
 C13 C15 1.517(5) . ?
 C13 P1 1.848(3) . ?
 C30 H30A 0.9600 . ?
 C30 H30B 0.9600 . ?
 C30 H30C 0.9600 . ?
 C30 C26 1.510(4) . ?
 C17 C22 1.393(4) . ?
 C17 C18 1.399(4) . ?
 C17 P2 1.852(3) . ?
 C22 C21 1.391(4) . ?
 C22 O1 1.393(3) . ?
 C16 H16A 0.9600 . ?
 C16 H16B 0.9600 . ?
 C16 H16C 0.9600 . ?
 C8 H8A 0.9600 . ?
 C8 H8B 0.9600 . ?
 C8 H8C 0.9600 . ?
 C8 C5 1.534(5) . ?
 C24 C25 1.401(4) . ?
 C24 C23 1.399(4) . ?
 C24 P1 1.802(3) . ?
 C28 C23 1.388(4) . ?
 C28 C27 1.397(4) . ?
 C28 S1 1.771(3) . ?
 C9 C12 1.531(4) . ?
 C9 C11 1.530(4) . ?
 C9 C10 1.533(4) . ?
 C9 P1 1.836(3) . ?
 C14 H14A 0.9600 . ?
 C14 H14B 0.9600 . ?
 C14 H14C 0.9600 . ?
 C5 C6 1.538(5) . ?
 C5 C7 1.520(6) . ?
 C5 P2 1.918(4) . ?
 C12 H12A 0.9600 . ?
 C12 H12B 0.9600 . ?
 C12 H12C 0.9600 . ?
 C15 H15A 0.9600 . ?
 C15 H15B 0.9600 . ?
 C15 H15C 0.9600 . ?
 C29 H29A 0.9600 . ?
 C29 H29B 0.9600 . ?
 C29 H29C 0.9600 . ?
 C29 C19 1.519(4) . ?
 C21 C20 1.391(4) . ?
 C21 S1 1.761(3) . ?
 C25 H25 0.9300 . ?
 C25 C26 1.386(4) . ?
 C18 H18 0.9300 . ?
 C18 C19 1.387(4) . ?
 C26 C27 1.389(4) . ?
 C2 H2A 0.9600 . ?
 C2 H2B 0.9600 . ?
 C2 H2C 0.9600 . ?
 C2 C1 1.524(5) . ?
 C23 O1 1.387(3) . ?
 C11 H11A 0.9600 . ?
 C11 H11B 0.9600 . ?
 C11 H11C 0.9600 . ?
 C19 C20 1.390(5) . ?
 C20 H20 0.9300 . ?
 C27 H27 0.9300 . ?
 C3 H3A 0.9600 . ?
 C3 H3B 0.9600 . ?
 C3 H3C 0.9600 . ?
 C3 C1 1.530(6) . ?
 C1 C4 1.534(5) . ?
 C1 P2 1.901(4) . ?
 C6 H6A 0.9600 . ?
 C6 H6B 0.9600 . ?
 C6 H6C 0.9600 . ?
 C10 H10A 0.9600 . ?
 C10 H10B 0.9600 . ?
 C10 H10C 0.9600 . ?
 C7 H7A 0.9600 . ?
 C7 H7B 0.9600 . ?
 C7 H7C 0.9600 . ?
 C4 H4A 0.9600 . ?
 C4 H4B 0.9600 . ?
 C4 H4C 0.9600 . ?
 P1 H1 1.22(3) . ?
 C45 H45A 0.9600 . ?
 C45 H45B 0.9600 . ?
 C45 H45C 0.9600 . ?
 C45 C43 1.526(4) . ?
 C59 H59 0.9300 . ?
 C59 C54 1.391(4) . ?
 C59 C58 1.390(4) . ?
 C53 H53A 0.9600 . ?
 C53 H53B 0.9600 . ?
 C53 H53C 0.9600 . ?
 C53 C49 1.509(4) . ?
 C46 H46A 0.9600 . ?
 C46 H46B 0.9600 . ?
 C46 H46C 0.9600 . ?
 C46 C43 1.527(4) . ?
 C44 H44A 0.9600 . ?
 C44 H44B 0.9600 . ?
 C44 H44C 0.9600 . ?
 C44 C43 1.540(4) . ?
 C47 C52 1.399(4) . ?
 C47 C48 1.404(4) . ?
 C47 P4 1.854(3) . ?
 C51 C52 1.389(4) . ?
 C51 C50 1.385(4) . ?
 C51 S2 1.771(3) . ?
 C54 C55 1.384(4) . ?
 C54 S2 1.764(3) . ?
 C43 P3 1.840(3) . ?
 C38 H38A 0.9600 . ?
 C38 H38B 0.9600 . ?
 C38 H38C 0.9600 . ?
 C38 C35 1.542(5) . ?
 C52 O2 1.396(3) . ?
 C60 H60A 0.9600 . ?
 C60 H60B 0.9600 . ?
 C60 H60C 0.9600 . ?
 C60 C58 1.512(4) . ?
 C35 C37 1.565(6) . ?
 C35 C36 1.545(5) . ?
 C35 P4 1.935(4) . ?
 C32 H32A 0.9600 . ?
 C32 H32B 0.9600 . ?
 C32 H32C 0.9600 . ?
 C32 C31 1.538(4) . ?
 C55 C56 1.400(4) . ?
 C55 O2 1.384(3) . ?
 C58 C57 1.382(4) . ?
 C48 H48 0.9300 . ?
 C48 C49 1.389(4) . ?
 C56 C57 1.396(4) . ?
 C56 P3 1.794(3) . ?
 C42 H42A 0.9600 . ?
 C42 H42B 0.9600 . ?
 C42 H42C 0.9600 . ?
 C42 C39 1.535(4) . ?
 C40 H40A 0.9600 . ?
 C40 H40B 0.9600 . ?
 C40 H40C 0.9600 . ?
 C40 C39 1.539(4) . ?
 C39 C41 1.536(4) . ?
 C39 P3 1.847(3) . ?
 C49 C50 1.390(4) . ?
 C50 H50 0.9300 . ?
 C34 H34A 0.9600 . ?
 C34 H34B 0.9600 . ?
 C34 H34C 0.9600 . ?
 C34 C31 1.531(6) . ?
 C31 C33 1.533(5) . ?
 C31 P4 1.888(4) . ?
 C57 H57 0.9300 . ?
 C37 H37A 0.9600 . ?
 C37 H37B 0.9600 . ?
 C37 H37C 0.9600 . ?
 C41 H41A 0.9600 . ?
 C41 H41B 0.9600 . ?
 C41 H41C 0.9600 . ?
 C36 H36A 0.9600 . ?
 C36 H36B 0.9600 . ?
 C36 H36C 0.9600 . ?
 C33 H33A 0.9600 . ?
 C33 H33B 0.9600 . ?
 C33 H33C 0.9600 . ?
 P3 H3 1.22(3) . ?
 C79 F18 1.36(5) . ?
 C79 F16 1.39(5) . ?
 C79 F17 1.15(7) . ?
 C79 S8 1.79(4) . ?
 C78 F12 1.28(6) . ?
 C78 F10 1.81(5) . ?
 C78 F11 1.35(5) . ?
 C78 S5 1.92(5) . ?
 C76 C73 1.491(4) . ?
 C76 S5 1.419(9) . ?
 C76 S8 2.027(12) . ?
 C76 S7 1.664(3) . ?
 C76 S6 1.694(3) . ?
 C70 H70 0.9300 . ?
 C70 C71 1.375(5) . ?
 C70 C75 1.376(5) . ?
 C74 H74 0.9300 . ?
 C74 C73 1.387(4) . ?
 C74 C75 1.393(4) . ?
 C71 H71 0.9300 . ?
 C71 C72 1.393(4) . ?
 C73 C72 1.391(4) . ?
 C75 H75 0.9300 . ?
 C80 F13 1.343(5) . ?
 C80 F15 1.326(5) . ?
 C80 F14 1.329(4) . ?
 C80 S7 1.845(4) . ?
 C72 H72 0.9300 . ?
 C77 F9 1.330(4) . ?
 C77 F7 1.321(4) . ?
 C77 F8 1.325(4) . ?
 C77 S6 1.840(3) . ?
 O14 S7 1.434(2) . ?
 O11 S8 1.32(6) . ?
 O13 S7 1.431(2) . ?
 O8 S5 1.44(3) . ?
 O7 S5 1.43(3) . ?
 O12 S8 1.46(3) . ?
 O9 S6 1.431(2) . ?
 O10 S6 1.433(4) . ?
 C65 H65 0.9300 . ?
 C65 C69 1.392(4) . ?
 C65 C64 1.387(4) . ?
 C61 H61 0.9300 . ?
 C61 C69 1.382(5) . ?
 C61 C62 1.376(5) . ?
 C69 H69 0.9300 . ?
 C66 C64 1.495(4) . ?
 C66 S3 1.679(3) . ?
 C66 S4 1.675(3) . ?
 C62 H62 0.9300 . ?
 C62 C63 1.382(4) . ?
 C64 C63 1.385(4) . ?
 C67 F5 1.328(4) . ?
 C67 F6 1.330(4) . ?
 C67 F4 1.321(4) . ?
 C67 S3 1.844(4) . ?
 C68 F2 1.341(4) . ?
 C68 F1 1.321(4) . ?
 C68 F3 1.326(4) . ?
 C68 S4 1.837(4) . ?
 C63 H63 0.9300 . ?
 O3 S3 1.428(2) . ?
 O4 S3 1.435(2) . ?
 O5 S4 1.427(2) . ?
 O6 S4 1.433(2) . ?
 C83 H83 0.9300 . ?
 C83 C82 1.419(5) . ?
 C83 C84 1.346(6) . ?
 C86 H86 0.9300 . ?
 C86 C81 1.360(6) . ?
 C86 C85 1.376(5) . ?
 C82 H82 0.9300 . ?
 C82 C81 1.374(5) . ?
 C84 H84 0.9300 . ?
 C84 C85 1.382(5) . ?
 C81 H81 0.9300 . ?
 C85 H85 0.9300 . ?

loop_
  _geom_angle_atom_site_label_1
  _geom_angle_atom_site_label_2
  _geom_angle_atom_site_label_3
  _geom_angle
  _geom_angle_site_symmetry_1
  _geom_angle_site_symmetry_3
  _geom_angle_publ_flag
 C16 C13 C14 108.5(3) . . ?
 C16 C13 P1 108.5(2) . . ?
 C14 C13 P1 104.4(2) . . ?
 C15 C13 C16 110.2(3) . . ?
 C15 C13 C14 112.0(3) . . ?
 C15 C13 P1 113.0(2) . . ?
 H30A C30 H30B 109.5 . . ?
 H30A C30 H30C 109.5 . . ?
 H30B C30 H30C 109.5 . . ?
 C26 C30 H30A 109.5 . . ?
 C26 C30 H30B 109.5 . . ?
 C26 C30 H30C 109.5 . . ?
 C22 C17 C18 117.1(3) . . ?
 C22 C17 P2 118.4(2) . . ?
 C18 C17 P2 124.5(2) . . ?
 C17 C22 O1 117.0(2) . . ?
 C21 C22 C17 121.7(3) . . ?
 C21 C22 O1 121.1(3) . . ?
 C13 C16 H16A 109.5 . . ?
 C13 C16 H16B 109.5 . . ?
 C13 C16 H16C 109.5 . . ?
 H16A C16 H16B 109.5 . . ?
 H16A C16 H16C 109.5 . . ?
 H16B C16 H16C 109.5 . . ?
 H8A C8 H8B 109.5 . . ?
 H8A C8 H8C 109.5 . . ?
 H8B C8 H8C 109.5 . . ?
 C5 C8 H8A 109.5 . . ?
 C5 C8 H8B 109.5 . . ?
 C5 C8 H8C 109.5 . . ?
 C25 C24 P1 120.6(2) . . ?
 C23 C24 C25 120.1(3) . . ?
 C23 C24 P1 119.3(2) . . ?
 C23 C28 C27 119.7(3) . . ?
 C23 C28 S1 120.4(2) . . ?
 C27 C28 S1 119.6(2) . . ?
 C12 C9 C10 109.1(3) . . ?
 C12 C9 P1 113.5(2) . . ?
 C11 C9 C12 110.5(3) . . ?
 C11 C9 C10 109.9(3) . . ?
 C11 C9 P1 108.3(2) . . ?
 C10 C9 P1 105.4(2) . . ?
 C13 C14 H14A 109.5 . . ?
 C13 C14 H14B 109.5 . . ?
 C13 C14 H14C 109.5 . . ?
 H14A C14 H14B 109.5 . . ?
 H14A C14 H14C 109.5 . . ?
 H14B C14 H14C 109.5 . . ?
 C8 C5 C6 106.0(4) . . ?
 C8 C5 P2 106.0(3) . . ?
 C6 C5 P2 120.4(3) . . ?
 C7 C5 C8 107.7(4) . . ?
 C7 C5 C6 109.0(4) . . ?
 C7 C5 P2 107.1(3) . . ?
 C9 C12 H12A 109.5 . . ?
 C9 C12 H12B 109.5 . . ?
 C9 C12 H12C 109.5 . . ?
 H12A C12 H12B 109.5 . . ?
 H12A C12 H12C 109.5 . . ?
 H12B C12 H12C 109.5 . . ?
 C13 C15 H15A 109.5 . . ?
 C13 C15 H15B 109.5 . . ?
 C13 C15 H15C 109.5 . . ?
 H15A C15 H15B 109.5 . . ?
 H15A C15 H15C 109.5 . . ?
 H15B C15 H15C 109.5 . . ?
 H29A C29 H29B 109.5 . . ?
 H29A C29 H29C 109.5 . . ?
 H29B C29 H29C 109.5 . . ?
 C19 C29 H29A 109.5 . . ?
 C19 C29 H29B 109.5 . . ?
 C19 C29 H29C 109.5 . . ?
 C22 C21 S1 122.4(2) . . ?
 C20 C21 C22 119.1(3) . . ?
 C20 C21 S1 118.4(2) . . ?
 C24 C25 H25 119.6 . . ?
 C26 C25 C24 120.9(3) . . ?
 C26 C25 H25 119.6 . . ?
 C17 C18 H18 118.6 . . ?
 C19 C18 C17 122.8(3) . . ?
 C19 C18 H18 118.6 . . ?
 C25 C26 C30 120.7(3) . . ?
 C25 C26 C27 118.3(3) . . ?
 C27 C26 C30 121.0(3) . . ?
 H2A C2 H2B 109.5 . . ?
 H2A C2 H2C 109.5 . . ?
 H2B C2 H2C 109.5 . . ?
 C1 C2 H2A 109.5 . . ?
 C1 C2 H2B 109.5 . . ?
 C1 C2 H2C 109.5 . . ?
 C28 C23 C24 119.2(3) . . ?
 O1 C23 C24 117.3(2) . . ?
 O1 C23 C28 123.3(3) . . ?
 C9 C11 H11A 109.5 . . ?
 C9 C11 H11B 109.5 . . ?
 C9 C11 H11C 109.5 . . ?
 H11A C11 H11B 109.5 . . ?
 H11A C11 H11C 109.5 . . ?
 H11B C11 H11C 109.5 . . ?
 C18 C19 C29 120.7(3) . . ?
 C18 C19 C20 118.1(3) . . ?
 C20 C19 C29 121.2(3) . . ?
 C21 C20 H20 119.4 . . ?
 C19 C20 C21 121.2(3) . . ?
 C19 C20 H20 119.4 . . ?
 C28 C27 H27 119.2 . . ?
 C26 C27 C28 121.6(3) . . ?
 C26 C27 H27 119.2 . . ?
 H3A C3 H3B 109.5 . . ?
 H3A C3 H3C 109.5 . . ?
 H3B C3 H3C 109.5 . . ?
 C1 C3 H3A 109.5 . . ?
 C1 C3 H3B 109.5 . . ?
 C1 C3 H3C 109.5 . . ?
 C2 C1 C3 107.1(4) . . ?
 C2 C1 C4 109.5(3) . . ?
 C2 C1 P2 117.9(3) . . ?
 C3 C1 C4 107.2(4) . . ?
 C3 C1 P2 105.5(2) . . ?
 C4 C1 P2 109.1(3) . . ?
 C5 C6 H6A 109.5 . . ?
 C5 C6 H6B 109.5 . . ?
 C5 C6 H6C 109.5 . . ?
 H6A C6 H6B 109.5 . . ?
 H6A C6 H6C 109.5 . . ?
 H6B C6 H6C 109.5 . . ?
 C9 C10 H10A 109.5 . . ?
 C9 C10 H10B 109.5 . . ?
 C9 C10 H10C 109.5 . . ?
 H10A C10 H10B 109.5 . . ?
 H10A C10 H10C 109.5 . . ?
 H10B C10 H10C 109.5 . . ?
 C5 C7 H7A 109.5 . . ?
 C5 C7 H7B 109.5 . . ?
 C5 C7 H7C 109.5 . . ?
 H7A C7 H7B 109.5 . . ?
 H7A C7 H7C 109.5 . . ?
 H7B C7 H7C 109.5 . . ?
 C1 C4 H4A 109.5 . . ?
 C1 C4 H4B 109.5 . . ?
 C1 C4 H4C 109.5 . . ?
 H4A C4 H4B 109.5 . . ?
 H4A C4 H4C 109.5 . . ?
 H4B C4 H4C 109.5 . . ?
 C23 O1 C22 120.8(2) . . ?
 C13 P1 H1 105.0(16) . . ?
 C24 P1 H1 107.7(16) . . ?
 C24 P1 C13 110.09(13) . . ?
 C24 P1 C9 110.86(13) . . ?
 C9 P1 H1 101.2(16) . . ?
 C9 P1 C13 120.71(14) . . ?
 C17 P2 C5 105.44(16) . . ?
 C17 P2 C1 101.27(15) . . ?
 C1 P2 C5 112.36(17) . . ?
 C21 S1 C28 100.19(14) . . ?
 H45A C45 H45B 109.5 . . ?
 H45A C45 H45C 109.5 . . ?
 H45B C45 H45C 109.5 . . ?
 C43 C45 H45A 109.5 . . ?
 C43 C45 H45B 109.5 . . ?
 C43 C45 H45C 109.5 . . ?
 C54 C59 H59 119.3 . . ?
 C58 C59 H59 119.3 . . ?
 C58 C59 C54 121.4(3) . . ?
 H53A C53 H53B 109.5 . . ?
 H53A C53 H53C 109.5 . . ?
 H53B C53 H53C 109.5 . . ?
 C49 C53 H53A 109.5 . . ?
 C49 C53 H53B 109.5 . . ?
 C49 C53 H53C 109.5 . . ?
 H46A C46 H46B 109.5 . . ?
 H46A C46 H46C 109.5 . . ?
 H46B C46 H46C 109.5 . . ?
 C43 C46 H46A 109.5 . . ?
 C43 C46 H46B 109.5 . . ?
 C43 C46 H46C 109.5 . . ?
 H44A C44 H44B 109.5 . . ?
 H44A C44 H44C 109.5 . . ?
 H44B C44 H44C 109.5 . . ?
 C43 C44 H44A 109.5 . . ?
 C43 C44 H44B 109.5 . . ?
 C43 C44 H44C 109.5 . . ?
 C52 C47 C48 116.4(3) . . ?
 C52 C47 P4 118.8(2) . . ?
 C48 C47 P4 124.8(2) . . ?
 C52 C51 S2 121.1(2) . . ?
 C50 C51 C52 119.9(3) . . ?
 C50 C51 S2 119.0(2) . . ?
 C59 C54 S2 120.2(2) . . ?
 C55 C54 C59 119.7(3) . . ?
 C55 C54 S2 119.9(2) . . ?
 C45 C43 C46 111.5(3) . . ?
 C45 C43 C44 110.0(3) . . ?
 C45 C43 P3 107.3(2) . . ?
 C46 C43 C44 109.7(3) . . ?
 C46 C43 P3 113.2(2) . . ?
 C44 C43 P3 104.9(2) . . ?
 H38A C38 H38B 109.5 . . ?
 H38A C38 H38C 109.5 . . ?
 H38B C38 H38C 109.5 . . ?
 C35 C38 H38A 109.5 . . ?
 C35 C38 H38B 109.5 . . ?
 C35 C38 H38C 109.5 . . ?
 C51 C52 C47 121.7(3) . . ?
 C51 C52 O2 120.8(3) . . ?
 O2 C52 C47 117.4(2) . . ?
 H60A C60 H60B 109.5 . . ?
 H60A C60 H60C 109.5 . . ?
 H60B C60 H60C 109.5 . . ?
 C58 C60 H60A 109.5 . . ?
 C58 C60 H60B 109.5 . . ?
 C58 C60 H60C 109.5 . . ?
 C38 C35 C37 106.6(4) . . ?
 C38 C35 C36 107.7(3) . . ?
 C38 C35 P4 106.2(3) . . ?
 C37 C35 P4 108.8(3) . . ?
 C36 C35 C37 107.8(3) . . ?
 C36 C35 P4 119.1(3) . . ?
 H32A C32 H32B 109.5 . . ?
 H32A C32 H32C 109.5 . . ?
 H32B C32 H32C 109.5 . . ?
 C31 C32 H32A 109.5 . . ?
 C31 C32 H32B 109.5 . . ?
 C31 C32 H32C 109.5 . . ?
 C54 C55 C56 119.6(2) . . ?
 O2 C55 C54 122.8(2) . . ?
 O2 C55 C56 117.4(2) . . ?
 C59 C58 C60 120.0(3) . . ?
 C57 C58 C59 118.4(3) . . ?
 C57 C58 C60 121.5(3) . . ?
 C47 C48 H48 118.4 . . ?
 C49 C48 C47 123.2(3) . . ?
 C49 C48 H48 118.4 . . ?
 C55 C56 P3 119.09(19) . . ?
 C57 C56 C55 119.5(2) . . ?
 C57 C56 P3 121.3(2) . . ?
 H42A C42 H42B 109.5 . . ?
 H42A C42 H42C 109.5 . . ?
 H42B C42 H42C 109.5 . . ?
 C39 C42 H42A 109.5 . . ?
 C39 C42 H42B 109.5 . . ?
 C39 C42 H42C 109.5 . . ?
 H40A C40 H40B 109.5 . . ?
 H40A C40 H40C 109.5 . . ?
 H40B C40 H40C 109.5 . . ?
 C39 C40 H40A 109.5 . . ?
 C39 C40 H40B 109.5 . . ?
 C39 C40 H40C 109.5 . . ?
 C42 C39 C40 109.8(2) . . ?
 C42 C39 C41 111.1(2) . . ?
 C42 C39 P3 113.60(19) . . ?
 C40 C39 P3 104.70(18) . . ?
 C41 C39 C40 109.2(2) . . ?
 C41 C39 P3 108.1(2) . . ?
 C48 C49 C53 121.8(3) . . ?
 C48 C49 C50 118.2(3) . . ?
 C50 C49 C53 120.1(3) . . ?
 C51 C50 C49 120.7(3) . . ?
 C51 C50 H50 119.7 . . ?
 C49 C50 H50 119.7 . . ?
 H34A C34 H34B 109.5 . . ?
 H34A C34 H34C 109.5 . . ?
 H34B C34 H34C 109.5 . . ?
 C31 C34 H34A 109.5 . . ?
 C31 C34 H34B 109.5 . . ?
 C31 C34 H34C 109.5 . . ?
 C32 C31 P4 116.4(3) . . ?
 C34 C31 C32 108.1(3) . . ?
 C34 C31 C33 108.1(3) . . ?
 C34 C31 P4 105.5(2) . . ?
 C33 C31 C32 109.5(3) . . ?
 C33 C31 P4 109.0(3) . . ?
 C58 C57 C56 121.2(3) . . ?
 C58 C57 H57 119.4 . . ?
 C56 C57 H57 119.4 . . ?
 C35 C37 H37A 109.5 . . ?
 C35 C37 H37B 109.5 . . ?
 C35 C37 H37C 109.5 . . ?
 H37A C37 H37B 109.5 . . ?
 H37A C37 H37C 109.5 . . ?
 H37B C37 H37C 109.5 . . ?
 C39 C41 H41A 109.5 . . ?
 C39 C41 H41B 109.5 . . ?
 C39 C41 H41C 109.5 . . ?
 H41A C41 H41B 109.5 . . ?
 H41A C41 H41C 109.5 . . ?
 H41B C41 H41C 109.5 . . ?
 C35 C36 H36A 109.5 . . ?
 C35 C36 H36B 109.5 . . ?
 C35 C36 H36C 109.5 . . ?
 H36A C36 H36B 109.5 . . ?
 H36A C36 H36C 109.5 . . ?
 H36B C36 H36C 109.5 . . ?
 C31 C33 H33A 109.5 . . ?
 C31 C33 H33B 109.5 . . ?
 C31 C33 H33C 109.5 . . ?
 H33A C33 H33B 109.5 . . ?
 H33A C33 H33C 109.5 . . ?
 H33B C33 H33C 109.5 . . ?
 C55 O2 C52 118.7(2) . . ?
 C43 P3 H3 102.6(14) . . ?
 C43 P3 C39 121.66(13) . . ?
 C56 P3 H3 108.4(14) . . ?
 C56 P3 C43 108.92(12) . . ?
 C56 P3 C39 111.58(12) . . ?
 C39 P3 H3 102.4(15) . . ?
 C47 P4 C35 106.32(16) . . ?
 C47 P4 C31 100.95(15) . . ?
 C31 P4 C35 112.66(17) . . ?
 C54 S2 C51 99.03(13) . . ?
 F18 C79 F16 102(3) . . ?
 F18 C79 S8 111(3) . . ?
 F16 C79 S8 110(3) . . ?
 F17 C79 F18 116(5) . . ?
 F17 C79 F16 101(4) . . ?
 F17 C79 S8 116(4) . . ?
 F12 C78 F10 93(3) . . ?
 F12 C78 F11 107(4) . . ?
 F12 C78 S5 106(3) . . ?
 F10 C78 S5 103(2) . . ?
 F11 C78 F10 140(3) . . ?
 F11 C78 S5 104(3) . . ?
 C73 C76 S8 113.1(3) . . ?
 C73 C76 S7 119.8(2) . . ?
 C73 C76 S6 119.3(2) . . ?
 S5 C76 C73 131.8(4) . . ?
 S5 C76 S8 113.6(5) . . ?
 S7 C76 S6 120.75(16) . . ?
 C71 C70 H70 120.0 . . ?
 C71 C70 C75 120.0(3) . . ?
 C75 C70 H70 120.0 . . ?
 C73 C74 H74 119.7 . . ?
 C73 C74 C75 120.6(3) . . ?
 C75 C74 H74 119.7 . . ?
 C70 C71 H71 119.8 . . ?
 C70 C71 C72 120.4(3) . . ?
 C72 C71 H71 119.8 . . ?
 C74 C73 C76 120.2(3) . . ?
 C74 C73 C72 118.9(3) . . ?
 C72 C73 C76 120.9(3) . . ?
 C70 C75 C74 120.0(3) . . ?
 C70 C75 H75 120.0 . . ?
 C74 C75 H75 120.0 . . ?
 F13 C80 S7 109.9(3) . . ?
 F15 C80 F13 108.4(3) . . ?
 F15 C80 F14 107.3(3) . . ?
 F15 C80 S7 111.1(3) . . ?
 F14 C80 F13 108.2(3) . . ?
 F14 C80 S7 111.9(2) . . ?
 C71 C72 H72 120.0 . . ?
 C73 C72 C71 120.1(3) . . ?
 C73 C72 H72 120.0 . . ?
 F9 C77 S6 109.5(2) . . ?
 F7 C77 F9 110.4(3) . . ?
 F7 C77 F8 107.6(3) . . ?
 F7 C77 S6 111.5(2) . . ?
 F8 C77 F9 106.1(3) . . ?
 F8 C77 S6 111.6(2) . . ?
 C76 S5 C78 101.2(14) . . ?
 C76 S5 O8 103.2(12) . . ?
 C76 S5 O7 124.0(13) . . ?
 O8 S5 C78 99.0(18) . . ?
 O7 S5 C78 104.4(18) . . ?
 O7 S5 O8 120.4(17) . . ?
 C79 S8 C76 114.2(16) . . ?
 O11 S8 C79 96(3) . . ?
 O11 S8 C76 124(3) . . ?
 O11 S8 O12 108(3) . . ?
 O12 S8 C79 103.7(19) . . ?
 O12 S8 C76 108.7(15) . . ?
 C76 S7 C80 105.58(16) . . ?
 O14 S7 C76 110.39(13) . . ?
 O14 S7 C80 101.84(15) . . ?
 O13 S7 C76 114.18(14) . . ?
 O13 S7 C80 103.67(14) . . ?
 O13 S7 O14 119.17(14) . . ?
 C76 S6 C77 105.87(14) . . ?
 O9 S6 C76 113.69(16) . . ?
 O9 S6 C77 102.44(14) . . ?
 O9 S6 O10 119.4(2) . . ?
 O10 S6 C76 110.49(18) . . ?
 O10 S6 C77 103.01(17) . . ?
 C69 C65 H65 119.8 . . ?
 C64 C65 H65 119.8 . . ?
 C64 C65 C69 120.4(3) . . ?
 C69 C61 H61 120.3 . . ?
 C62 C61 H61 120.3 . . ?
 C62 C61 C69 119.3(3) . . ?
 C65 C69 H69 119.8 . . ?
 C61 C69 C65 120.3(3) . . ?
 C61 C69 H69 119.8 . . ?
 C64 C66 S3 118.7(2) . . ?
 C64 C66 S4 120.7(2) . . ?
 S4 C66 S3 120.65(16) . . ?
 C61 C62 H62 119.8 . . ?
 C61 C62 C63 120.4(3) . . ?
 C63 C62 H62 119.8 . . ?
 C65 C64 C66 121.1(3) . . ?
 C63 C64 C65 118.5(3) . . ?
 C63 C64 C66 120.4(3) . . ?
 F5 C67 F6 107.6(3) . . ?
 F5 C67 S3 111.3(2) . . ?
 F6 C67 S3 109.8(3) . . ?
 F4 C67 F5 107.1(3) . . ?
 F4 C67 F6 107.5(3) . . ?
 F4 C67 S3 113.5(2) . . ?
 F2 C68 S4 110.4(3) . . ?
 F1 C68 F2 107.1(3) . . ?
 F1 C68 F3 107.7(3) . . ?
 F1 C68 S4 111.9(2) . . ?
 F3 C68 F2 108.5(3) . . ?
 F3 C68 S4 111.1(2) . . ?
 C62 C63 C64 121.0(3) . . ?
 C62 C63 H63 119.5 . . ?
 C64 C63 H63 119.5 . . ?
 C66 S3 C67 107.27(15) . . ?
 O3 S3 C66 114.59(14) . . ?
 O3 S3 C67 102.90(15) . . ?
 O3 S3 O4 119.42(15) . . ?
 O4 S3 C66 109.31(14) . . ?
 O4 S3 C67 101.55(16) . . ?
 C66 S4 C68 108.18(15) . . ?
 O5 S4 C66 113.54(13) . . ?
 O5 S4 C68 102.50(15) . . ?
 O5 S4 O6 120.14(14) . . ?
 O6 S4 C66 110.19(13) . . ?
 O6 S4 C68 100.43(15) . . ?
 C82 C83 H83 120.2 . . ?
 C84 C83 H83 120.2 . . ?
 C84 C83 C82 119.5(3) . . ?
 C81 C86 H86 120.1 . . ?
 C81 C86 C85 119.8(4) . . ?
 C85 C86 H86 120.1 . . ?
 C83 C82 H82 120.8 . . ?
 C81 C82 C83 118.4(4) . . ?
 C81 C82 H82 120.8 . . ?
 C83 C84 H84 119.4 . . ?
 C83 C84 C85 121.2(4) . . ?
 C85 C84 H84 119.4 . . ?
 C86 C81 C82 121.4(3) . . ?
 C86 C81 H81 119.3 . . ?
 C82 C81 H81 119.3 . . ?
 C86 C85 C84 119.7(4) . . ?
 C86 C85 H85 120.2 . . ?
 C84 C85 H85 120.2 . . ?

loop_
  _geom_torsion_atom_site_label_1
  _geom_torsion_atom_site_label_2
  _geom_torsion_atom_site_label_3
  _geom_torsion_atom_site_label_4
  _geom_torsion
  _geom_torsion_site_symmetry_1
  _geom_torsion_site_symmetry_2
  _geom_torsion_site_symmetry_3
  _geom_torsion_site_symmetry_4
  _geom_torsion_publ_flag
 C30 C26 C27 C28 -175.0(3) . . . . ?
 C17 C22 C21 C20 -1.0(5) . . . . ?
 C17 C22 C21 S1 175.2(2) . . . . ?
 C17 C22 O1 C23 153.9(3) . . . . ?
 C17 C18 C19 C29 178.7(3) . . . . ?
 C17 C18 C19 C20 -1.4(5) . . . . ?
 C22 C17 C18 C19 1.7(5) . . . . ?
 C22 C17 P2 C5 -138.7(3) . . . . ?
 C22 C17 P2 C1 104.1(3) . . . . ?
 C22 C21 C20 C19 1.4(5) . . . . ?
 C22 C21 S1 C28 23.2(3) . . . . ?
 C16 C13 P1 C24 -160.9(2) . . . . ?
 C16 C13 P1 C9 67.9(3) . . . . ?
 C24 C25 C26 C30 176.3(3) . . . . ?
 C24 C25 C26 C27 -2.9(4) . . . . ?
 C24 C23 O1 C22 -152.8(3) . . . . ?
 C28 C23 O1 C22 31.3(4) . . . . ?
 C14 C13 P1 C24 -45.4(3) . . . . ?
 C14 C13 P1 C9 -176.6(2) . . . . ?
 C12 C9 P1 C13 67.1(3) . . . . ?
 C12 C9 P1 C24 -63.7(3) . . . . ?
 C15 C13 P1 C24 76.5(3) . . . . ?
 C15 C13 P1 C9 -54.7(3) . . . . ?
 C29 C19 C20 C21 179.7(3) . . . . ?
 C21 C22 O1 C23 -30.3(4) . . . . ?
 C25 C24 C23 C28 3.9(4) . . . . ?
 C25 C24 C23 O1 -172.2(3) . . . . ?
 C25 C24 P1 C13 -70.7(3) . . . . ?
 C25 C24 P1 C9 65.4(3) . . . . ?
 C25 C26 C27 C28 4.3(4) . . . . ?
 C18 C17 C22 C21 -0.5(5) . . . . ?
 C18 C17 C22 O1 175.3(3) . . . . ?
 C18 C17 P2 C5 42.5(3) . . . . ?
 C18 C17 P2 C1 -74.7(3) . . . . ?
 C18 C19 C20 C21 -0.2(5) . . . . ?
 C23 C24 C25 C26 -1.1(4) . . . . ?
 C23 C24 P1 C13 108.4(2) . . . . ?
 C23 C24 P1 C9 -115.5(2) . . . . ?
 C23 C28 C27 C26 -1.6(4) . . . . ?
 C23 C28 S1 C21 -22.3(3) . . . . ?
 C11 C9 P1 C13 -56.0(3) . . . . ?
 C11 C9 P1 C24 173.2(2) . . . . ?
 C20 C21 S1 C28 -160.6(3) . . . . ?
 C27 C28 C23 C24 -2.5(4) . . . . ?
 C27 C28 C23 O1 173.3(3) . . . . ?
 C27 C28 S1 C21 163.4(2) . . . . ?
 C10 C9 P1 C13 -173.5(2) . . . . ?
 C10 C9 P1 C24 55.7(3) . . . . ?
 O1 C22 C21 C20 -176.6(3) . . . . ?
 O1 C22 C21 S1 -0.4(4) . . . . ?
 P1 C24 C25 C26 178.0(2) . . . . ?
 P1 C24 C23 C28 -175.2(2) . . . . ?
 P1 C24 C23 O1 8.7(4) . . . . ?
 P2 C17 C22 C21 -179.3(2) . . . . ?
 P2 C17 C22 O1 -3.5(4) . . . . ?
 P2 C17 C18 C19 -179.5(3) . . . . ?
 S1 C28 C23 C24 -176.9(2) . . . . ?
 S1 C28 C23 O1 -1.0(4) . . . . ?
 S1 C28 C27 C26 172.8(2) . . . . ?
 S1 C21 C20 C19 -175.0(3) . . . . ?
 C45 C43 P3 C56 -163.9(2) . . . . ?
 C45 C43 P3 C39 64.2(2) . . . . ?
 C59 C54 C55 C56 -0.3(4) . . . . ?
 C59 C54 C55 O2 175.9(3) . . . . ?
 C59 C54 S2 C51 156.1(2) . . . . ?
 C59 C58 C57 C56 -1.1(4) . . . . ?
 C53 C49 C50 C51 178.0(3) . . . . ?
 C46 C43 P3 C56 72.7(2) . . . . ?
 C46 C43 P3 C39 -59.3(3) . . . . ?
 C44 C43 P3 C56 -46.9(2) . . . . ?
 C44 C43 P3 C39 -178.85(19) . . . . ?
 C47 C52 O2 C55 147.6(3) . . . . ?
 C47 C48 C49 C53 179.6(3) . . . . ?
 C47 C48 C49 C50 -0.8(5) . . . . ?
 C51 C52 O2 C55 -36.7(4) . . . . ?
 C54 C59 C58 C60 -175.7(3) . . . . ?
 C54 C59 C58 C57 2.1(4) . . . . ?
 C54 C55 C56 C57 1.3(4) . . . . ?
 C54 C55 C56 P3 -176.4(2) . . . . ?
 C54 C55 O2 C52 37.0(4) . . . . ?
 C52 C47 C48 C49 1.8(5) . . . . ?
 C52 C47 P4 C35 -144.9(3) . . . . ?
 C52 C47 P4 C31 97.4(3) . . . . ?
 C52 C51 C50 C49 2.8(5) . . . . ?
 C52 C51 S2 C54 28.2(3) . . . . ?
 C60 C58 C57 C56 176.6(3) . . . . ?
 C32 C31 P4 C47 47.6(3) . . . . ?
 C32 C31 P4 C35 -65.4(3) . . . . ?
 C55 C54 S2 C51 -28.2(3) . . . . ?
 C55 C56 C57 C58 -0.6(4) . . . . ?
 C55 C56 P3 C43 105.4(2) . . . . ?
 C55 C56 P3 C39 -117.5(2) . . . . ?
 C58 C59 C54 C55 -1.4(4) . . . . ?
 C58 C59 C54 S2 174.4(2) . . . . ?
 C48 C47 C52 C51 -0.5(5) . . . . ?
 C48 C47 C52 O2 175.1(3) . . . . ?
 C48 C47 P4 C35 34.0(3) . . . . ?
 C48 C47 P4 C31 -83.8(3) . . . . ?
 C48 C49 C50 C51 -1.6(5) . . . . ?
 C56 C55 O2 C52 -146.7(2) . . . . ?
 C42 C39 P3 C43 56.8(3) . . . . ?
 C42 C39 P3 C56 -74.0(2) . . . . ?
 C40 C39 P3 C43 176.64(18) . . . . ?
 C40 C39 P3 C56 45.8(2) . . . . ?
 C50 C51 C52 C47 -1.7(5) . . . . ?
 C50 C51 C52 O2 -177.3(3) . . . . ?
 C50 C51 S2 C54 -154.5(3) . . . . ?
 C34 C31 P4 C47 -72.2(2) . . . . ?
 C34 C31 P4 C35 174.8(2) . . . . ?
 C57 C56 P3 C43 -72.2(2) . . . . ?
 C57 C56 P3 C39 64.9(2) . . . . ?
 C41 C39 P3 C43 -67.0(2) . . . . ?
 C41 C39 P3 C56 162.2(2) . . . . ?
 C33 C31 P4 C47 172.0(3) . . . . ?
 C33 C31 P4 C35 59.0(3) . . . . ?
 O2 C55 C56 C57 -175.2(2) . . . . ?
 O2 C55 C56 P3 7.1(3) . . . . ?
 P3 C56 C57 C58 177.1(2) . . . . ?
 P4 C47 C52 C51 178.4(2) . . . . ?
 P4 C47 C52 O2 -5.9(4) . . . . ?
 P4 C47 C48 C49 -177.1(3) . . . . ?
 S2 C51 C52 C47 175.5(2) . . . . ?
 S2 C51 C52 O2 0.0(4) . . . . ?
 S2 C51 C50 C49 -174.5(2) . . . . ?
 S2 C54 C55 C56 -176.1(2) . . . . ?
 S2 C54 C55 O2 0.1(4) . . . . ?
 C76 C73 C72 C71 -177.6(3) . . . . ?
 C70 C71 C72 C73 -1.7(5) . . . . ?
 C74 C73 C72 C71 2.0(4) . . . . ?
 C71 C70 C75 C74 1.2(4) . . . . ?
 C73 C76 S5 C78 -91.1(14) . . . . ?
 C73 C76 S5 O8 11.0(16) . . . . ?
 C73 C76 S5 O7 152.8(14) . . . . ?
 C73 C76 S7 C80 90.9(3) . . . . ?
 C73 C76 S7 O14 -18.4(3) . . . . ?
 C73 C76 S7 O13 -155.9(2) . . . . ?
 C73 C76 S6 C77 92.2(2) . . . . ?
 C73 C76 S6 O9 -156.1(2) . . . . ?
 C73 C76 S6 O10 -18.6(3) . . . . ?
 C73 C74 C75 C70 -0.9(4) . . . . ?
 C75 C70 C71 C72 0.1(5) . . . . ?
 C75 C74 C73 C76 178.9(3) . . . . ?
 C75 C74 C73 C72 -0.7(4) . . . . ?
 F9 C77 S6 C76 -179.9(2) . . . . ?
 F9 C77 S6 O9 60.7(3) . . . . ?
 F9 C77 S6 O10 -63.9(3) . . . . ?
 F13 C80 S7 C76 -50.3(3) . . . . ?
 F13 C80 S7 O14 65.0(3) . . . . ?
 F13 C80 S7 O13 -170.7(3) . . . . ?
 F18 C79 S8 C76 55(4) . . . . ?
 F18 C79 S8 O11 -77(4) . . . . ?
 F18 C79 S8 O12 173(3) . . . . ?
 F7 C77 S6 C76 -57.5(3) . . . . ?
 F7 C77 S6 O9 -176.8(2) . . . . ?
 F7 C77 S6 O10 58.6(3) . . . . ?
 F15 C80 S7 C76 -170.2(3) . . . . ?
 F15 C80 S7 O14 -54.9(3) . . . . ?
 F15 C80 S7 O13 69.4(3) . . . . ?
 F16 C79 S8 C76 -57(3) . . . . ?
 F16 C79 S8 O11 171(4) . . . . ?
 F16 C79 S8 O12 61(3) . . . . ?
 F14 C80 S7 C76 69.9(3) . . . . ?
 F14 C80 S7 O14 -174.8(2) . . . . ?
 F14 C80 S7 O13 -50.5(3) . . . . ?
 F17 C79 S8 C76 -170(4) . . . . ?
 F17 C79 S8 O11 58(5) . . . . ?
 F17 C79 S8 O12 -52(5) . . . . ?
 F8 C77 S6 C76 62.9(2) . . . . ?
 F8 C77 S6 O9 -56.5(3) . . . . ?
 F8 C77 S6 O10 178.9(3) . . . . ?
 S5 C76 C73 C74 129.7(6) . . . . ?
 S5 C76 C73 C72 -50.8(7) . . . . ?
 S5 C76 S7 C80 -132.7(4) . . . . ?
 S5 C76 S7 O14 117.9(4) . . . . ?
 S5 C76 S7 O13 -19.5(4) . . . . ?
 S5 C76 S6 C77 -30.0(5) . . . . ?
 S5 C76 S6 O9 81.7(5) . . . . ?
 S5 C76 S6 O10 -140.9(5) . . . . ?
 S8 C76 C73 C74 -65.6(4) . . . . ?
 S8 C76 C73 C72 113.9(4) . . . . ?
 S8 C76 S5 C78 104.2(13) . . . . ?
 S8 C76 S5 O8 -153.6(13) . . . . ?
 S8 C76 S5 O7 -11.9(17) . . . . ?
 S8 C76 S7 C80 -3.7(4) . . . . ?
 S8 C76 S7 O14 -113.0(4) . . . . ?
 S8 C76 S7 O13 109.6(4) . . . . ?
 S8 C76 S6 C77 -135.5(3) . . . . ?
 S8 C76 S6 O9 -23.8(3) . . . . ?
 S8 C76 S6 O10 113.7(3) . . . . ?
 S7 C76 C73 C74 -117.7(3) . . . . ?
 S7 C76 C73 C72 61.9(3) . . . . ?
 S7 C76 S5 C78 142.3(13) . . . . ?
 S7 C76 S5 O8 -115.6(14) . . . . ?
 S7 C76 S5 O7 26.2(15) . . . . ?
 S7 C76 S6 C77 -85.0(2) . . . . ?
 S7 C76 S6 O9 26.6(2) . . . . ?
 S7 C76 S6 O10 164.1(2) . . . . ?
 S6 C76 C73 C74 65.1(3) . . . . ?
 S6 C76 C73 C72 -115.4(3) . . . . ?
 S6 C76 S5 C78 7.3(12) . . . . ?
 S6 C76 S5 O8 109.4(14) . . . . ?
 S6 C76 S5 O7 -108.8(16) . . . . ?
 S6 C76 S7 C80 -91.9(2) . . . . ?
 S6 C76 S7 O14 158.83(17) . . . . ?
 S6 C76 S7 O13 21.4(2) . . . . ?
 C65 C64 C63 C62 0.2(5) . . . . ?
 C61 C62 C63 C64 1.1(5) . . . . ?
 C69 C65 C64 C66 -180.0(3) . . . . ?
 C69 C65 C64 C63 -0.9(4) . . . . ?
 C69 C61 C62 C63 -1.7(5) . . . . ?
 C66 C64 C63 C62 179.3(3) . . . . ?
 C62 C61 C69 C65 1.0(5) . . . . ?
 C64 C65 C69 C61 0.3(5) . . . . ?
 C64 C66 S3 C67 -99.4(2) . . . . ?
 C64 C66 S3 O3 147.1(2) . . . . ?
 C64 C66 S3 O4 10.0(3) . . . . ?
 C64 C66 S4 C68 -83.1(3) . . . . ?
 C64 C66 S4 O5 163.8(2) . . . . ?
 C64 C66 S4 O6 25.8(3) . . . . ?
 F5 C67 S3 C66 54.4(3) . . . . ?
 F5 C67 S3 O3 175.6(2) . . . . ?
 F5 C67 S3 O4 -60.2(3) . . . . ?
 F6 C67 S3 C66 173.3(2) . . . . ?
 F6 C67 S3 O3 -65.4(3) . . . . ?
 F6 C67 S3 O4 58.7(3) . . . . ?
 F4 C67 S3 C66 -66.4(3) . . . . ?
 F4 C67 S3 O3 54.8(3) . . . . ?
 F4 C67 S3 O4 178.9(2) . . . . ?
 F2 C68 S4 C66 171.9(2) . . . . ?
 F2 C68 S4 O5 -67.9(3) . . . . ?
 F2 C68 S4 O6 56.4(3) . . . . ?
 F1 C68 S4 C66 -68.9(3) . . . . ?
 F1 C68 S4 O5 51.3(3) . . . . ?
 F1 C68 S4 O6 175.6(2) . . . . ?
 F3 C68 S4 C66 51.5(3) . . . . ?
 F3 C68 S4 O5 171.8(3) . . . . ?
 F3 C68 S4 O6 -63.9(3) . . . . ?
 S3 C66 C64 C65 109.0(3) . . . . ?
 S3 C66 C64 C63 -70.0(3) . . . . ?
 S3 C66 S4 C68 98.3(2) . . . . ?
 S3 C66 S4 O5 -14.8(2) . . . . ?
 S3 C66 S4 O6 -152.82(18) . . . . ?
 S4 C66 C64 C65 -69.6(3) . . . . ?
 S4 C66 C64 C63 111.3(3) . . . . ?
 S4 C66 S3 C67 79.3(2) . . . . ?
 S4 C66 S3 O3 -34.3(2) . . . . ?
 S4 C66 S3 O4 -171.39(19) . . . . ?
 C83 C82 C81 C86 -0.3(5) . . . . ?
 C83 C84 C85 C86 -0.9(6) . . . . ?
 C82 C83 C84 C85 1.0(6) . . . . ?
 C84 C83 C82 C81 -0.4(5) . . . . ?
 C81 C86 C85 C84 0.1(6) . . . . ?
 C85 C86 C81 C82 0.5(5) . . . . ?

_olex2_computing_structure_refinement_long 'ShelXL (Sheldrick, 2008)'
