TITL mrmn-b in P2(1)/n
CELL 1.54184 14.196147 39.456339 16.358319 90 100.1751 90
ZERR 4 0.000122 0.000253 0.000152 0 0.0008 0
LATT 1
SYMM 0.5-X,0.5+Y,0.5-Z
 
SFAC C H F O P S
UNIT 336 440 48 40 16 24
RIGU C76 S7 O14 O13 C80 S6 C73 S8 S5 F13 F15 F14 O9 O10 C77 C74 C72 O11 O12 =
 C79 F17 O7 O8 C78 F9 F7 F8 H74 C75 C71 H72 F18 F16 F11 F10 F12 C70 H75 H71 H70
 
L.S. 4 0 0
PLAN  100
MORE -1
BOND $H
CONF
fmap 2 53
acta
OMIT 0 7 6
OMIT -1 5 2
OMIT 1 4 4
OMIT 0 8 2
REM <HKL>/Users/melanie/Documents/Research/Thesis/Crystalstructures/MRMNB-StBu
REM H-Mine/mrmn-b.hkl</HKL>
 
WGHT    0.067000   14.233300
FVAR       0.39788   0.92829
H1    2    0.310736    0.385868    0.632603    11.00000    0.03808
C13   1    0.386541    0.427661    0.552893    11.00000    0.03044    0.05100 =
         0.03188    0.00137    0.00858    0.00568
C30   1   -0.001422    0.454391    0.368427    11.00000    0.03779    0.05304 =
         0.03731    0.01088    0.00151    0.00858
AFIX 137
H30A  2   -0.055012    0.459152    0.395094    11.00000   -1.50000
H30B  2   -0.024044    0.448301    0.311528    11.00000   -1.50000
H30C  2    0.038434    0.474142    0.370616    11.00000   -1.50000
AFIX   0
C17   1    0.282246    0.293764    0.566335    11.00000    0.04136    0.03072 =
         0.03351   -0.00261   -0.00042   -0.00374
C22   1    0.206614    0.313234    0.525142    11.00000    0.03908    0.02986 =
         0.03203   -0.00430    0.00195   -0.00341
C16   1    0.478907    0.422763    0.616275    11.00000    0.03231    0.05719 =
         0.04319   -0.00175    0.00438    0.00222
AFIX 137
H16A  2    0.480108    0.438509    0.661186    11.00000   -1.50000
H16B  2    0.533155    0.426679    0.589840    11.00000   -1.50000
H16C  2    0.481284    0.400033    0.637478    11.00000   -1.50000
AFIX   0
C8    1    0.564877    0.320638    0.691339    11.00000    0.04742    0.06908 =
         0.13006   -0.02444   -0.01813    0.00136
AFIX 137
H8A   2    0.551070    0.343976    0.677554    11.00000   -1.50000
H8B   2    0.628169    0.315263    0.682247    11.00000   -1.50000
H8C   2    0.561026    0.316871    0.748634    11.00000   -1.50000
AFIX   0
C24   1    0.182472    0.404745    0.520090    11.00000    0.02996    0.03608 =
         0.02344   -0.00265    0.00272    0.00523
C28   1    0.079666    0.364916    0.435998    11.00000    0.03219    0.04272 =
         0.02769   -0.00750   -0.00002    0.00315
C9    1    0.249252    0.435858    0.687346    11.00000    0.03772    0.03120 =
         0.02658   -0.00193    0.00698   -0.00308
C14   1    0.388382    0.403213    0.479617    11.00000    0.04164    0.11797 =
         0.04142   -0.02769    0.00751    0.00857
AFIX 137
H14A  2    0.390010    0.380251    0.499221    11.00000   -1.50000
H14B  2    0.444221    0.407592    0.455657    11.00000   -1.50000
H14C  2    0.332063    0.406581    0.438368    11.00000   -1.50000
AFIX   0
C5    1    0.491974    0.297956    0.636354    11.00000    0.04129    0.04179 =
         0.06844   -0.00348    0.00150    0.00210
C12   1    0.208679    0.471214    0.664141    11.00000    0.06355    0.04400 =
         0.03795   -0.00621    0.00999    0.01618
AFIX 137
H12A  2    0.254925    0.484316    0.641482    11.00000   -1.50000
H12B  2    0.194502    0.482275    0.712817    11.00000   -1.50000
H12C  2    0.151172    0.469218    0.623576    11.00000   -1.50000
AFIX   0
C15   1    0.376871    0.464328    0.524823    11.00000    0.04320    0.07477 =
         0.08282    0.04295    0.02313    0.00834
AFIX 137
H15A  2    0.318934    0.467070    0.485101    11.00000   -1.50000
H15B  2    0.430682    0.470452    0.499708    11.00000   -1.50000
H15C  2    0.374878    0.478669    0.571894    11.00000   -1.50000
AFIX   0
C29   1    0.230478    0.209241    0.451681    11.00000    0.07533    0.03045 =
         0.05351   -0.00958   -0.00300   -0.00329
AFIX 137
H29A  2    0.291798    0.205862    0.435900    11.00000   -1.50000
H29B  2    0.180823    0.204075    0.405470    11.00000   -1.50000
H29C  2    0.224630    0.194610    0.497407    11.00000   -1.50000
AFIX   0
C21   1    0.138626    0.299873    0.461637    11.00000    0.03744    0.03629 =
         0.03055   -0.00522    0.00125   -0.00393
C25   1    0.132615    0.431546    0.475824    11.00000    0.03353    0.03550 =
         0.02792    0.00099    0.00627    0.00503
AFIX  43
H25   2    0.151330    0.453752    0.489073    11.00000   -1.20000
AFIX   0
C18   1    0.286647    0.259966    0.541497    11.00000    0.05058    0.02796 =
         0.04557   -0.00078   -0.00111   -0.00154
AFIX  43
H18   2    0.335525    0.246323    0.569143    11.00000   -1.20000
AFIX   0
C26   1    0.055758    0.425413    0.412536    11.00000    0.03139    0.04705 =
         0.02401    0.00510    0.00793    0.00747
C2    1    0.323270    0.256270    0.751767    11.00000    0.09239    0.04209 =
         0.05794    0.01160    0.01651    0.00785
AFIX 137
H2A   2    0.284078    0.247643    0.702280    11.00000   -1.50000
H2B   2    0.295684    0.250112    0.799193    11.00000   -1.50000
H2C   2    0.386384    0.246814    0.757253    11.00000   -1.50000
AFIX   0
C23   1    0.153913    0.371250    0.501670    11.00000    0.03202    0.03592 =
         0.02641   -0.00254   -0.00049    0.00605
C11   1    0.336386    0.438162    0.757116    11.00000    0.04806    0.05179 =
         0.02779   -0.00486    0.00345   -0.00072
AFIX 137
H11A  2    0.364618    0.416114    0.767308    11.00000   -1.50000
H11B  2    0.316735    0.446363    0.806744    11.00000   -1.50000
H11C  2    0.382463    0.453454    0.741061    11.00000   -1.50000
AFIX   0
C19   1    0.221270    0.245919    0.477422    11.00000    0.05881    0.02995 =
         0.03983   -0.00507    0.00363   -0.00587
C20   1    0.147278    0.266348    0.437798    11.00000    0.04874    0.03936 =
         0.03163   -0.00523   -0.00135   -0.00963
AFIX  43
H20   2    0.102772    0.257435    0.394578    11.00000   -1.20000
AFIX   0
C27   1    0.032200    0.391988    0.391546    11.00000    0.02686    0.05417 =
         0.02254   -0.00070    0.00162    0.00445
AFIX  43
H27   2   -0.016396    0.387519    0.346774    11.00000   -1.20000
AFIX   0
C3    1    0.228368    0.308576    0.746158    11.00000    0.09711    0.06487 =
         0.05136    0.01231    0.02432    0.01925
AFIX 137
H3A   2    0.230186    0.332898    0.746975    11.00000   -1.50000
H3B   2    0.205373    0.300482    0.794373    11.00000   -1.50000
H3C   2    0.186338    0.301019    0.697019    11.00000   -1.50000
AFIX   0
C1    1    0.329091    0.294761    0.746329    11.00000    0.07382    0.03807 =
         0.03542    0.00225   -0.00335    0.00456
C6    1    0.522868    0.261270    0.658674    11.00000    0.05657    0.04215 =
         0.14651   -0.00092    0.00703    0.00715
AFIX 137
H6A   2    0.526461    0.257813    0.717234    11.00000   -1.50000
H6B   2    0.584501    0.257187    0.644133    11.00000   -1.50000
H6C   2    0.476931    0.245905    0.628590    11.00000   -1.50000
AFIX   0
C10   1    0.171547    0.413992    0.715391    11.00000    0.05919    0.06614 =
         0.05176   -0.01012    0.02687   -0.02427
AFIX 137
H10A  2    0.116902    0.412797    0.671559    11.00000   -1.50000
H10B  2    0.153066    0.423904    0.763776    11.00000   -1.50000
H10C  2    0.196016    0.391583    0.728400    11.00000   -1.50000
AFIX   0
C7    1    0.500530    0.304672    0.546479    11.00000    0.06061    0.12647 =
         0.08371    0.02279    0.01979    0.01099
AFIX 137
H7A   2    0.461946    0.288659    0.511133    11.00000   -1.50000
H7B   2    0.566161    0.302352    0.540111    11.00000   -1.50000
H7C   2    0.478888    0.327245    0.531421    11.00000   -1.50000
AFIX   0
C4    1    0.393668    0.308494    0.824470    11.00000    0.12776    0.08668 =
         0.04100   -0.00142   -0.01843   -0.02146
AFIX 137
H4A   2    0.458208    0.301017    0.825442    11.00000   -1.50000
H4B   2    0.371492    0.300244    0.872927    11.00000   -1.50000
H4C   2    0.391710    0.332815    0.823933    11.00000   -1.50000
AFIX   0
O1    4    0.198248    0.346119    0.554093    11.00000    0.04348    0.02873 =
         0.03211   -0.00484   -0.00704    0.00328
P1    5    0.284694    0.412889    0.599948    11.00000    0.03094    0.02605 =
         0.02474   -0.00151    0.00078    0.00251
P2    5    0.368239    0.313764    0.650881    11.00000    0.04419    0.02671 =
         0.03957   -0.00217   -0.00916    0.00083
S1    6    0.037721    0.323058    0.414094    11.00000    0.03794    0.04302 =
         0.04357   -0.01133   -0.00777   -0.00103
 
H3    2    0.264083    0.374327    0.127006    11.00000    0.02977
C45   1    0.424134    0.414603    0.118521    11.00000    0.03320    0.04613 =
         0.04418   -0.00418    0.00301   -0.00625
AFIX 137
H45A  2    0.414748    0.432782    0.155256    11.00000   -1.50000
H45B  2    0.482641    0.418193    0.097970    11.00000   -1.50000
H45C  2    0.427644    0.393496    0.148094    11.00000   -1.50000
AFIX   0
C59   1    0.012165    0.365035   -0.133697    11.00000    0.03106    0.04254 =
         0.02665   -0.00399   -0.00014    0.00542
AFIX  43
H59   2   -0.030932    0.357782   -0.179940    11.00000   -1.20000
AFIX   0
C53   1    0.274411    0.196924   -0.043082    11.00000    0.07019    0.02758 =
         0.04558   -0.00459    0.00086    0.00778
AFIX 137
H53A  2    0.334275    0.190454   -0.009704    11.00000   -1.50000
H53B  2    0.280000    0.196315   -0.100698    11.00000   -1.50000
H53C  2    0.225303    0.181464   -0.033465    11.00000   -1.50000
AFIX   0
C46   1    0.326195    0.447696    0.001379    11.00000    0.04522    0.04114 =
         0.03942    0.00290    0.01296   -0.01002
AFIX 137
H46A  2    0.272442    0.446336   -0.043264    11.00000   -1.50000
H46B  2    0.382655    0.453360   -0.020488    11.00000   -1.50000
H46C  2    0.314521    0.464859    0.039973    11.00000   -1.50000
AFIX   0
C44   1    0.357486    0.385814   -0.016205    11.00000    0.03480    0.04901 =
         0.04401   -0.01150    0.01330   -0.00008
AFIX 137
H44A  2    0.360609    0.364101    0.010617    11.00000   -1.50000
H44B  2    0.416654    0.390142   -0.035076    11.00000   -1.50000
H44C  2    0.305809    0.385905   -0.062800    11.00000   -1.50000
AFIX   0
C47   1    0.282449    0.283091    0.067203    11.00000    0.04848    0.02270 =
         0.03187    0.00320   -0.00076    0.00100
C51   1    0.141579    0.280217   -0.041665    11.00000    0.03972    0.02674 =
         0.03356   -0.00051    0.00236   -0.00265
C54   1    0.060368    0.341088   -0.079386    11.00000    0.03129    0.02986 =
         0.03228   -0.00387    0.00395    0.00016
C43   1    0.340459    0.413554    0.045779    11.00000    0.03048    0.03572 =
         0.03404   -0.00362    0.00864   -0.00423
C38   1    0.550580    0.324258    0.195960    11.00000    0.05528    0.05533 =
         0.10077    0.00265   -0.01732   -0.01170
AFIX 137
H38A  2    0.533089    0.345783    0.170359    11.00000   -1.50000
H38B  2    0.616828    0.319790    0.194906    11.00000   -1.50000
H38C  2    0.540523    0.324690    0.252462    11.00000   -1.50000
AFIX   0
C52   1    0.199196    0.297560    0.022287    11.00000    0.04293    0.02041 =
         0.03036    0.00069    0.00285   -0.00011
C60   1   -0.031640    0.424919   -0.177179    11.00000    0.04552    0.04968 =
         0.03292    0.00549   -0.00067    0.01431
AFIX 137
H60A  2   -0.039559    0.417013   -0.233480    11.00000   -1.50000
H60B  2    0.000669    0.446391   -0.172703    11.00000   -1.50000
H60C  2   -0.093281    0.427457   -0.161444    11.00000   -1.50000
AFIX   0
C35   1    0.488417    0.296168    0.148018    11.00000    0.04513    0.04567 =
         0.06443    0.00634   -0.00256    0.00088
C32   1    0.306460    0.253501    0.253264    11.00000    0.07696    0.03635 =
         0.04408    0.00990    0.00079    0.00552
AFIX 137
H32A  2    0.269416    0.244319    0.203400    11.00000   -1.50000
H32B  2    0.276167    0.248103    0.299658    11.00000   -1.50000
H32C  2    0.369596    0.243915    0.261893    11.00000   -1.50000
AFIX   0
C55   1    0.126183    0.351592   -0.011369    11.00000    0.02825    0.02687 =
         0.02514    0.00095    0.00489    0.00266
C58   1    0.027015    0.399562   -0.120352    11.00000    0.03271    0.03904 =
         0.02646    0.00278    0.00594    0.00929
C48   1    0.304016    0.250053    0.044583    11.00000    0.04754    0.02654 =
         0.03748    0.00421    0.00014    0.00526
AFIX  43
H48   2    0.357943    0.239494    0.074337    11.00000   -1.20000
AFIX   0
C56   1    0.143988    0.386241    0.001892    11.00000    0.02662    0.02821 =
         0.02162   -0.00091    0.00604    0.00125
C42   1    0.155531    0.460897    0.133470    11.00000    0.05545    0.02630 =
         0.03924   -0.00196    0.01351    0.00573
AFIX 137
H42A  2    0.211861    0.473168    0.126206    11.00000   -1.50000
H42B  2    0.125448    0.472196    0.174035    11.00000   -1.50000
H42C  2    0.111819    0.459911    0.081554    11.00000   -1.50000
AFIX   0
C40   1    0.093756    0.405114    0.176443    11.00000    0.04313    0.03674 =
         0.03367   -0.00046    0.01425   -0.00051
AFIX 137
H40A  2    0.047493    0.405264    0.125964    11.00000   -1.50000
H40B  2    0.066822    0.415655    0.219940    11.00000   -1.50000
H40C  2    0.110998    0.382147    0.191669    11.00000   -1.50000
AFIX   0
C39   1    0.183449    0.424792    0.163226    11.00000    0.03919    0.02646 =
         0.02496   -0.00233    0.00627    0.00123
C49   1    0.248710    0.232363   -0.020095    11.00000    0.05327    0.02391 =
         0.03724    0.00052    0.00383    0.00177
C50   1    0.167591    0.248118   -0.063692    11.00000    0.05124    0.02585 =
         0.03538   -0.00435    0.00219   -0.00507
AFIX  43
H50   2    0.130378    0.236984   -0.108134    11.00000   -1.20000
AFIX   0
C34   1    0.212609    0.306948    0.240081    11.00000    0.08648    0.04117 =
         0.03861    0.00561    0.01326    0.00600
AFIX 137
H34A  2    0.215875    0.331246    0.239395    11.00000   -1.50000
H34B  2    0.186560    0.299698    0.287499    11.00000   -1.50000
H34C  2    0.172304    0.299140    0.190267    11.00000   -1.50000
AFIX   0
C31   1    0.313191    0.292217    0.244997    11.00000    0.07737    0.03297 =
         0.03240    0.00472   -0.00548    0.00314
C57   1    0.093660    0.409799   -0.052801    11.00000    0.03329    0.02771 =
         0.02770    0.00253    0.00926    0.00401
AFIX  43
H57   2    0.105195    0.432808   -0.043607    11.00000   -1.20000
AFIX   0
C37   1    0.505966    0.297758    0.056312    11.00000    0.05608    0.05209 =
         0.07784    0.01484    0.01002    0.00399
AFIX 137
H37A  2    0.477746    0.278269    0.026426    11.00000   -1.50000
H37B  2    0.573530    0.298011    0.056036    11.00000   -1.50000
H37C  2    0.477390    0.317969    0.030212    11.00000   -1.50000
AFIX   0
C41   1    0.256088    0.425264    0.244818    11.00000    0.04844    0.04657 =
         0.02918   -0.00857    0.00243    0.00257
AFIX 137
H41A  2    0.276086    0.402516    0.259795    11.00000   -1.50000
H41B  2    0.226899    0.435008    0.287987    11.00000   -1.50000
H41C  2    0.310681    0.438561    0.237671    11.00000   -1.50000
AFIX   0
C36   1    0.526399    0.261730    0.184912    11.00000    0.05828    0.05125 =
         0.08578    0.01510   -0.01079    0.00087
AFIX 137
H36A  2    0.523610    0.261215    0.243109    11.00000   -1.50000
H36B  2    0.591463    0.258799    0.177413    11.00000   -1.50000
H36C  2    0.487727    0.243773    0.157142    11.00000   -1.50000
AFIX   0
C33   1    0.376830    0.306676    0.322642    11.00000    0.10775    0.05722 =
         0.03420   -0.00101   -0.01025   -0.00486
AFIX 137
H33A  2    0.439706    0.297011    0.328252    11.00000   -1.50000
H33B  2    0.349719    0.301225    0.370782    11.00000   -1.50000
H33C  2    0.380924    0.330846    0.317521    11.00000   -1.50000
AFIX   0
O2    4    0.172309    0.329343    0.047879    11.00000    0.04055    0.02240 =
         0.02669   -0.00143   -0.00117    0.00239
P3    5    0.234485    0.399340    0.086881    11.00000    0.02993    0.02100 =
         0.02401   -0.00015    0.00370    0.00058
P4    5    0.356826    0.308468    0.149748    11.00000    0.04975    0.02708 =
         0.03578   -0.00063   -0.00954    0.00420
S2    6    0.032108    0.297700   -0.093078    11.00000    0.03806    0.03213 =
         0.04535   -0.00875   -0.00574   -0.00349
 
PART 2
C79   1    0.354004    0.611023    0.616926   -21.00000    0.02803    0.03855 =
         0.04543    0.00714    0.00484   -0.00624
C78   1    0.151186    0.525508    0.405400   -21.00000    0.04388    0.02960 =
         0.03499    0.00548    0.01232    0.00051
PART 0
C76   1    0.210295    0.585743    0.454454    11.00000    0.03243    0.02305 =
         0.03643    0.00407    0.00742    0.00369
C70   1    0.076734    0.671910    0.323593    11.00000    0.05355    0.02312 =
         0.03539    0.00001   -0.00835    0.00256
AFIX  43
H70   2    0.048107    0.690897    0.296034    11.00000   -1.20000
AFIX   0
C74   1    0.072171    0.625304    0.416886    11.00000    0.03821    0.02669 =
         0.03226   -0.00084    0.00285    0.00409
AFIX  43
H74   2    0.039732    0.613045    0.451788    11.00000   -1.20000
AFIX   0
C71   1    0.167159    0.662354    0.313549    11.00000    0.05142    0.03004 =
         0.03857    0.00915   -0.00086   -0.00876
AFIX  43
H71   2    0.199556    0.674961    0.279251    11.00000   -1.20000
AFIX   0
C73   1    0.163513    0.615466    0.407578    11.00000    0.03692    0.02059 =
         0.02990    0.00089    0.00242    0.00012
C75   1    0.028635    0.653376    0.374418    11.00000    0.04160    0.03273 =
         0.03785   -0.00413   -0.00311    0.00960
AFIX  43
H75   2   -0.032966    0.659594    0.380418    11.00000   -1.20000
AFIX   0
PART 1
C80   1    0.272851    0.599184    0.623198    21.00000    0.03825    0.03703 =
         0.03187   -0.00391    0.00524    0.00141
PART 0
C72   1    0.210529    0.633903    0.354438    11.00000    0.03787    0.03274 =
         0.04109    0.00792    0.00458   -0.00194
AFIX  43
H72   2    0.270983    0.627229    0.346197    11.00000   -1.20000
AFIX   0
PART 1
C77   1    0.224231    0.528379    0.354287    21.00000    0.04293    0.02764 =
         0.03442   -0.00162    0.01007    0.00416
O14   4    0.355448    0.622567    0.508142    21.00000    0.03338    0.03977 =
         0.04074    0.00193    0.00370   -0.00642
PART 0
PART 2
O11   4    0.190553    0.614577    0.619164   -21.00000    0.02979    0.02535 =
         0.03770    0.00447    0.01466   -0.00646
PART 0
PART 1
O13   4    0.368523    0.561183    0.538034    21.00000    0.03617    0.04265 =
         0.03436    0.00265    0.00523    0.01324
PART 0
PART 2
O8    4    0.265619    0.564981    0.344390   -21.00000    0.04647    0.02908 =
         0.03681    0.00666    0.01366    0.00195
O7    4    0.329840    0.538221    0.480838   -21.00000    0.03505    0.03357 =
         0.03657    0.00608    0.01444    0.01020
O12   4    0.241067    0.560488    0.620295   -21.00000    0.02584    0.02791 =
         0.03511    0.00590    0.00194   -0.00413
PART 0
PART 1
O9    4    0.187092    0.523280    0.501559    21.00000    0.04833    0.02731 =
         0.03690    0.00791    0.01491    0.00377
O10   4    0.065417    0.549030    0.392303    21.00000    0.03394    0.02957 =
         0.04476   -0.00315    0.00882   -0.00204
F9    3    0.190508    0.497425    0.334783    21.00000    0.07169    0.03568 =
         0.07435   -0.01853    0.01772   -0.00455
PART 0
PART 2
F12   3    0.078574    0.543081    0.372905   -21.00000    0.04261    0.02756 =
         0.03370    0.00210    0.00920   -0.00064
PART 0
PART 1
F13   3    0.206144    0.623699    0.614262    21.00000    0.06148    0.03852 =
         0.04624   -0.00249    0.02087    0.01283
PART 0
PART 2
F18   3    0.366961    0.640369    0.576255   -21.00000    0.03900    0.04834 =
         0.06376    0.01644    0.00143   -0.01056
PART 0
PART 1
F7    3    0.213984    0.547688    0.287361    21.00000    0.06757    0.06033 =
         0.03114    0.01061    0.01639    0.02510
PART 0
PART 2
F10   3    0.164737    0.507137    0.306912   -21.00000    0.06415    0.02804 =
         0.03247    0.00716    0.01482    0.00970
PART 0
PART 1
F15   3    0.346108    0.609041    0.680150    21.00000    0.04958    0.06704 =
         0.03649   -0.01139    0.00334   -0.00571
PART 0
PART 2
F16   3    0.424401    0.590421    0.594353   -21.00000    0.03266    0.04908 =
         0.05263    0.00856    0.00919   -0.00375
PART 0
PART 1
F14   3    0.236044    0.571667    0.652315    21.00000    0.05413    0.04426 =
         0.03354    0.00248    0.01372   -0.00215
PART 0
PART 2
F17   3    0.377268    0.611332    0.687841   -21.00000    0.02951    0.05740 =
         0.04674    0.00729    0.00327   -0.00866
PART 0
PART 1
F8    3    0.317222    0.524759    0.381897    21.00000    0.04363    0.05165 =
         0.03945   -0.00105    0.01232    0.01674
PART 0
PART 2
F11   3    0.137207    0.515667    0.481481   -21.00000    0.03684    0.02883 =
         0.03222    0.00460    0.00837   -0.01124
S5    6    0.256273    0.556756    0.428466   -21.00000    0.03965    0.02387 =
         0.03238    0.00383    0.01130    0.00453
S8    6    0.238202    0.593263    0.578964   -21.00000    0.02641    0.02935 =
         0.02680    0.00424    0.00477    0.00029
PART 0
PART 1
S7    6    0.310878    0.591055    0.522796    21.00000    0.02961    0.03077 =
         0.02844    0.00093    0.00556    0.00334
S6    6    0.162794    0.546617    0.434140    21.00000    0.03379    0.02090 =
         0.03087    0.00146    0.01059    0.00170
 
PART 0
C65   1    0.889685    0.361064    0.051275    11.00000    0.03840    0.02824 =
         0.03897    0.00450    0.01157    0.00224
AFIX  43
H65   2    0.902735    0.365357   -0.001503    11.00000   -1.20000
AFIX   0
C61   1    0.918739    0.328396    0.177386    11.00000    0.04454    0.02541 =
         0.03960    0.00665   -0.00306    0.00313
AFIX  43
H61   2    0.951628    0.311299    0.209671    11.00000   -1.20000
AFIX   0
C69   1    0.937792    0.335117    0.099036    11.00000    0.03486    0.02945 =
         0.05229    0.00381    0.00961    0.00372
AFIX  43
H69   2    0.982995    0.322236    0.078109    11.00000   -1.20000
AFIX   0
C66   1    0.770088    0.408532    0.031326    11.00000    0.02885    0.02848 =
         0.03193    0.00477    0.00629    0.00252
C62   1    0.850594    0.347262    0.207166    11.00000    0.06440    0.03829 =
         0.02958    0.00848    0.00898    0.00809
AFIX  43
H62   2    0.836171    0.342472    0.259240    11.00000   -1.20000
AFIX   0
C64   1    0.822386    0.380570    0.081871    11.00000    0.03080    0.02471 =
         0.03061    0.00285    0.00297    0.00049
C67   1    0.644122    0.390545   -0.117025    11.00000    0.04851    0.03267 =
         0.04861    0.00340   -0.00532   -0.00105
C68   1    0.832903    0.472368    0.101698    11.00000    0.05246    0.03292 =
         0.05132   -0.00157    0.00357    0.00537
C63   1    0.803447    0.373277    0.160212    11.00000    0.05153    0.03660 =
         0.03511    0.00502    0.01304    0.01209
AFIX  43
H63   2    0.758355    0.386072    0.181515    11.00000   -1.20000
AFIX   0
O3    4    0.598077    0.433762   -0.013134    11.00000    0.03440    0.04532 =
         0.05812    0.01021    0.00946    0.01085
O4    4    0.618912    0.373582    0.028166    11.00000    0.03428    0.04912 =
         0.06662    0.02039    0.00734   -0.00765
O5    4    0.775838    0.463754   -0.054203    11.00000    0.04590    0.03395 =
         0.04505    0.01339    0.00291   -0.00098
O6    4    0.927111    0.437145    0.015348    11.00000    0.03252    0.03726 =
         0.05972    0.00682    0.01123   -0.00027
F5    3    0.697650    0.363489   -0.124196    11.00000    0.09146    0.03991 =
         0.05402   -0.00459    0.00071    0.01448
F6    3    0.553940    0.382541   -0.148424    11.00000    0.05991    0.08772 =
         0.07162   -0.00972   -0.01911   -0.01652
F4    3    0.670927    0.414463   -0.164554    11.00000    0.08993    0.04309 =
         0.04028    0.00523    0.00539   -0.00261
F2    3    0.888881    0.499133    0.094001    11.00000    0.07660    0.03848 =
         0.08526   -0.01049    0.00587   -0.01497
F1    3    0.747664    0.484288    0.108451    11.00000    0.07225    0.05423 =
         0.07796   -0.01458    0.02494    0.01452
F3    3    0.867867    0.456447    0.171935    11.00000    0.10817    0.05015 =
         0.04369   -0.00529   -0.00789    0.00863
S3    6    0.653358    0.403337   -0.007486    11.00000    0.02812    0.03544 =
         0.04385    0.00784    0.00526    0.00061
S4    6    0.827326    0.443966    0.011979    11.00000    0.03140    0.02666 =
         0.03759    0.00467    0.00589    0.00153
 
C83   1    0.587857    0.472455    0.209038    11.00000    0.04344    0.04115 =
         0.06407    0.00003    0.00318    0.00084
AFIX  43
H83   2    0.643998    0.460625    0.206763    11.00000   -1.20000
AFIX   0
C86   1    0.420346    0.507055    0.215366    11.00000    0.04543    0.03912 =
         0.06410   -0.00669    0.00427    0.00089
AFIX  43
H86   2    0.363765    0.518567    0.217885    11.00000   -1.20000
AFIX   0
C82   1    0.540518    0.490380    0.138410    11.00000    0.05309    0.04120 =
         0.05509   -0.00360    0.00765   -0.01123
AFIX  43
H82   2    0.565135    0.490637    0.089368    11.00000   -1.20000
AFIX   0
C84   1    0.550933    0.472692    0.279360    11.00000    0.05076    0.04349 =
         0.05544    0.00642   -0.00419    0.00404
AFIX  43
H84   2    0.582596    0.461232    0.325885    11.00000   -1.20000
AFIX   0
C81   1    0.457412    0.507357    0.144179    11.00000    0.05639    0.03397 =
         0.05842    0.00710   -0.01083   -0.00634
AFIX  43
H81   2    0.425845    0.519307    0.098422    11.00000   -1.20000
AFIX   0
C85   1    0.466808    0.489665    0.283652    11.00000    0.06095    0.04947 =
         0.05642   -0.00351    0.01230   -0.00282
AFIX  43
H85   2    0.441713    0.489336    0.332455    11.00000   -1.20000
AFIX   0
HKLF 4
 
REM  mrmn-b in P2(1)/n
REM R1 =  0.0551 for   15662 Fo > 4sig(Fo)  and  0.0624 for all   17960 data
REM   1208 parameters refined using    291 restraints
 
END  
     
WGHT      0.0670     14.2335 

REM Highest difference peak  1.110,  deepest hole -0.558,  1-sigma level  0.072
Q1    1   0.3040  0.3008  0.1605  11.00000  0.05    1.11
Q2    1   0.0641  0.3393  0.3617  11.00000  0.05    0.74
Q3    1   0.3209  0.3194  0.6705  11.00000  0.05    0.72
Q4    1   0.8353  0.5002  0.1220  11.00000  0.05    0.63
Q5    1   0.7535  0.3999 -0.0641  11.00000  0.05    0.62
Q6    1   0.5745  0.2774  0.1170  11.00000  0.05    0.60
Q7    1   0.2432  0.4032  0.5820  11.00000  0.05    0.49
Q8    1   0.6006  0.2617  0.1960  11.00000  0.05    0.49
Q9    1   0.4933  0.2588  0.5950  11.00000  0.05    0.48
Q10   1   0.5583  0.2429  0.1227  11.00000  0.05    0.48
Q11   1   0.0315  0.2991  0.4200  11.00000  0.05    0.48
Q12   1   0.1709  0.5019  0.3836  11.00000  0.05    0.46
Q13   1   0.7793  0.4419  0.0640  11.00000  0.05    0.46
Q14   1   0.5770  0.4211 -0.0539  11.00000  0.05    0.46
Q15   1   0.6496  0.4009 -0.0617  11.00000  0.05    0.45
Q16   1   0.6148  0.3020  0.1918  11.00000  0.05    0.45
Q17   1   0.0480  0.3213 -0.0812  11.00000  0.05    0.44
Q18   1   0.6025  0.3195  0.1435  11.00000  0.05    0.43
Q19   1   0.2902  0.4032  0.0843  11.00000  0.05    0.41
Q20   1   0.3372  0.4219  0.5785  11.00000  0.05    0.39
Q21   1   0.5045  0.4980  0.1961  11.00000  0.05    0.38
Q22   1   0.2387  0.3580  0.5018  11.00000  0.05    0.37
Q23   1   0.8366  0.3621  0.0659  11.00000  0.05    0.36
Q24   1   0.5735  0.2634  0.6193  11.00000  0.05    0.36
Q25   1   0.6112  0.3616 -0.0302  11.00000  0.05    0.35
Q26   1   0.8377  0.4603  0.0633  11.00000  0.05    0.35
Q27   1   0.1835  0.6045  0.4279  11.00000  0.05    0.35
Q28   1   0.7244  0.4011 -0.0116  11.00000  0.05    0.34
Q29   1   0.7997  0.4142  0.0100  11.00000  0.05    0.33
Q30   1   0.6834  0.4789  0.1134  11.00000  0.05    0.31
Q31   1   0.1341  0.6192  0.4187  11.00000  0.05    0.31
Q32   1  -0.0274  0.3020 -0.0977  11.00000  0.05    0.30
Q33   1   0.3389  0.1971 -0.0609  11.00000  0.05    0.30
Q34   1   0.3180  0.3024  0.6051  11.00000  0.05    0.30
Q35   1   0.7726  0.3659 -0.1137  11.00000  0.05    0.30
Q36   1   0.4247  0.4205  0.5904  11.00000  0.05    0.30
Q37   1   0.1245  0.4035 -0.0349  11.00000  0.05    0.30
Q38   1   0.0973  0.5424  0.4314  11.00000  0.05    0.29
Q39   1   0.4380  0.3025  0.6419  11.00000  0.05    0.29
Q40   1   0.0890  0.2797 -0.0506  11.00000  0.05    0.29
Q41   1   0.1629  0.4417  0.1468  11.00000  0.05    0.29
Q42   1   0.0276  0.3002 -0.0397  11.00000  0.05    0.28
Q43   1   0.3815  0.4352  0.5352  11.00000  0.05    0.28
Q44   1   0.9632  0.4583  0.0895  11.00000  0.05    0.28
Q45   1   0.7204  0.4579  0.1329  11.00000  0.05    0.28
Q46   1   0.0428  0.3833  0.4148  11.00000  0.05    0.27
Q47   1   0.8213  0.3802  0.1185  11.00000  0.05    0.27
Q48   1   0.0229  0.3819 -0.1223  11.00000  0.05    0.27
Q49   1   0.1966  0.5380  0.3986  11.00000  0.05    0.27
Q50   1   0.7947  0.4437  0.1564  11.00000  0.05    0.27
Q51   1   0.0592  0.6383  0.4017  11.00000  0.05    0.27
Q52   1   0.1844  0.3976  0.0336  11.00000  0.05    0.27
Q53   1   0.7807  0.3740 -0.1040  11.00000  0.05    0.27
Q54   1   0.2225  0.5973  0.4867  11.00000  0.05    0.26
Q55   1   0.1571  0.3021  0.5077  11.00000  0.05    0.26
Q56   1   0.0988  0.4225  0.4562  11.00000  0.05    0.26
Q57   1   0.1622  0.3007  0.2514  11.00000  0.05    0.26
Q58   1   0.7956  0.4550  0.1799  11.00000  0.05    0.26
Q59   1   0.1834  0.3224  0.0365  11.00000  0.05    0.25
Q60   1   0.9234  0.4409  0.0593  11.00000  0.05    0.25
Q61   1   0.2177  0.4226  0.1969  11.00000  0.05    0.25
Q62   1   0.0468  0.5442  0.3842  11.00000  0.05    0.25
Q63   1   0.2242  0.2781  0.0649  11.00000  0.05    0.25
Q64   1   0.2767  0.2631  0.0615  11.00000  0.05    0.25
Q65   1   0.1745  0.6228  0.3838  11.00000  0.05    0.25
Q66   1   0.1821  0.5590  0.4476  11.00000  0.05    0.24
Q67   1   0.6151  0.3030  0.6998  11.00000  0.05    0.24
Q68   1   0.1907  0.2398 -0.0217  11.00000  0.05    0.24
Q69   1   0.9053  0.4776 -0.0183  11.00000  0.05    0.24
Q70   1   0.1830  0.5396  0.4769  11.00000  0.05    0.24
Q71   1   0.7949  0.3982  0.0570  11.00000  0.05    0.24
Q72   1   0.3224  0.6199  0.5128  11.00000  0.05    0.24
Q73   1   0.3734  0.3204  0.5947  11.00000  0.05    0.24
Q74   1   0.1581  0.4186  0.5018  11.00000  0.05    0.24
Q75   1  -0.0331  0.4419  0.3540  11.00000  0.05    0.24
Q76   1   0.2588  0.2953  0.2601  11.00000  0.05    0.24
Q77   1   0.2386  0.2977  0.5726  11.00000  0.05    0.24
Q78   1   0.3765  0.4196  0.0853  11.00000  0.05    0.24
Q79   1   0.6012  0.2984  0.7168  11.00000  0.05    0.24
Q80   1   0.0735  0.4011 -0.0979  11.00000  0.05    0.24
Q81   1   0.5936  0.3191  0.6240  11.00000  0.05    0.24
Q82   1   0.2636  0.5176  0.3772  11.00000  0.05    0.24
Q83   1   0.2705  0.5772  0.4836  11.00000  0.05    0.24
Q84   1  -0.0002  0.4795  0.3972  11.00000  0.05    0.24
Q85   1   0.2158  0.4228  0.6963  11.00000  0.05    0.23
Q86   1   0.2911  0.4392  0.7223  11.00000  0.05    0.23
Q87   1   0.1109  0.6620  0.3060  11.00000  0.05    0.23
Q88   1   0.2252  0.3031  0.5460  11.00000  0.05    0.23
Q89   1   0.1463  0.3727 -0.0025  11.00000  0.05    0.23
Q90   1   0.0804  0.2970  0.4663  11.00000  0.05    0.23
Q91   1  -0.0349  0.3190  0.4151  11.00000  0.05    0.23
Q92   1   0.3676  0.5956  0.5176  11.00000  0.05    0.23
Q93   1   0.3451  0.5764  0.5395  11.00000  0.05    0.22
Q94   1   0.5989  0.2610  0.6898  11.00000  0.05    0.22
Q95   1   0.2309  0.5751  0.4424  11.00000  0.05    0.22
Q96   1   0.9222  0.3608  0.0884  11.00000  0.05    0.22
Q97   1   0.0329  0.4331  0.3985  11.00000  0.05    0.22
Q98   1   0.6009  0.3805 -0.1802  11.00000  0.05    0.22
Q99   1   0.1525  0.2002  0.4421  11.00000  0.05    0.22
Q100  1   0.8742  0.3376  0.1854  11.00000  0.05    0.22

REM The information below was added by Olex2.
REM
REM R1 = 0.0551 for 15662 Fo > 4sig(Fo) and 0.0624 for all 69863 data
REM n/a parameters refined using n/a restraints
REM Highest difference peak 1.11, deepest hole -0.56
REM Mean Shift 0, Max Shift -0.001.

REM +++ Tabular Listing of Refinement Information +++
REM R1_all = 0.0624
REM R1_gt = 0.0551
REM wR_ref = 0.1539
REM GOOF = 1.063
REM Shift_max = -0.001
REM Shift_mean = 0
REM Reflections_all = 69863
REM Reflections_gt = 15662
REM Parameters = n/a
REM Hole = -0.56
REM Peak = 1.11
REM Flack = n/a

