TITL MRMNEa in P21 #4
CELL 1.54184 8.669665 15.44173 11.948243 90 99.6997 90
ZERR 2 0.000281 0.000551 0.000428 0 0.0032 0
LATT -1
SYMM -X,0.5+Y,-Z
 
SFAC C H Ag Cl O P S
UNIT 60 92 2 2 2 4 2
 
L.S. 4
PLAN  20
REM reset to P21 #4
BOND
fmap 2
MORE -1
CONF
OMIT 0 -19 1
OMIT -1 -19 1
REM <HKL>/Users/melanie/Documents/Research/Thesis/Crystalstructures/MRMNE-AgSt
REM BuCl/MRMNEa.hkl</HKL>
 
WGHT    0.107700    1.363600
FVAR       7.09778
AG1   3   -0.169661   -0.249520   -0.338551    11.00000    0.02560    0.01782 =
         0.01781    0.00009    0.00467    0.00267
CL6   4   -0.179714   -0.350936   -0.501751    11.00000    0.05444    0.03195 =
         0.02626   -0.01075   -0.00248    0.01329
P1    6   -0.305505   -0.112239   -0.377626    11.00000    0.02321    0.01356 =
         0.01389   -0.00050    0.00300    0.00092
S1    7   -0.430044   -0.121739    0.066206    11.00000    0.03110    0.03055 =
         0.01829    0.00232    0.01225    0.00651
O6    5   -0.308628   -0.190071   -0.137491    11.00000    0.02474    0.01598 =
         0.01421   -0.00387    0.00229    0.00040
C9    1   -0.378502   -0.108221   -0.153151    11.00000    0.01725    0.00723 =
         0.01851   -0.00490   -0.00440    0.00401
C13   1   -0.392104   -0.066792   -0.258682    11.00000    0.02317    0.01820 =
         0.01854   -0.00511    0.00432    0.00210
C16   1   -0.522630    0.008253   -0.083903    11.00000    0.02630    0.02897 =
         0.01955   -0.00408    0.00332    0.00603
AFIX  43
H16   2   -0.565702    0.032695   -0.025047    11.00000   -1.20000
AFIX   0
C17   1   -0.473730    0.012037   -0.272262    11.00000    0.03053    0.02431 =
         0.01297    0.00674    0.00673    0.00714
AFIX  43
H17   2   -0.485264    0.039464   -0.342475    11.00000   -1.20000
AFIX   0
P2    6   -0.033142   -0.309658   -0.161021    11.00000    0.02268    0.01514 =
         0.01755    0.00069    0.00316    0.00334
C3    1   -0.077427   -0.257511   -0.031354    11.00000    0.02477    0.01283 =
         0.01895   -0.00088    0.00601    0.00242
C5    1   -0.016032   -0.235769    0.175491    11.00000    0.03829    0.01532 =
         0.02620    0.00651    0.00132   -0.00176
C1    1   -0.248486   -0.172674    0.066579    11.00000    0.02333    0.01623 =
         0.01656    0.00096    0.00252   -0.00379
C10   1   -0.150907   -0.186696    0.171545    11.00000    0.03152    0.02241 =
         0.01410   -0.00246    0.00958   -0.00307
AFIX  43
H10   2   -0.176561   -0.163280    0.237734    11.00000   -1.20000
AFIX   0
C2    1    0.014547   -0.269856    0.075021    11.00000    0.03502    0.02777 =
         0.02528   -0.00373   -0.00157    0.00614
AFIX  43
H2    2    0.103737   -0.303862    0.078341    11.00000   -1.20000
AFIX   0
C4    1   -0.210421   -0.205980   -0.033706    11.00000    0.02055    0.00911 =
         0.01769    0.00042    0.00323    0.00043
C19   1   -0.443943   -0.071003   -0.066109    11.00000    0.02451    0.02828 =
         0.01773   -0.00189    0.00130    0.00397
C20   1   -0.537881    0.050992   -0.186499    11.00000    0.03393    0.02197 =
         0.02541    0.00335    0.00194    0.00922
C6    1    0.089563   -0.250636    0.286861    11.00000    0.05078    0.03234 =
         0.02537   -0.00820   -0.01150   -0.00667
AFIX 137
H6A   2    0.112826   -0.196222    0.324822    11.00000   -1.50000
H6B   2    0.184990   -0.277189    0.273634    11.00000   -1.50000
H6C   2    0.038440   -0.288011    0.333388    11.00000   -1.50000
AFIX   0
C7    1    0.219365   -0.202798   -0.134439    11.00000    0.03442    0.05524 =
         0.05095   -0.00709    0.00595   -0.01854
AFIX 137
H7A   2    0.146448   -0.168659   -0.185649    11.00000   -1.50000
H7B   2    0.323942   -0.190299   -0.146153    11.00000   -1.50000
H7C   2    0.209529   -0.189077   -0.057593    11.00000   -1.50000
AFIX   0
C8    1    0.184788   -0.298438   -0.156497    11.00000    0.02924    0.03263 =
         0.03293    0.00192   -0.00099    0.00219
C11   1   -0.275532   -0.421612   -0.168990    11.00000    0.04579    0.02945 =
         0.03139    0.00102    0.01228   -0.02091
AFIX 137
H11A  2   -0.313292   -0.380982   -0.119119    11.00000   -1.50000
H11B  2   -0.317179   -0.478011   -0.158096    11.00000   -1.50000
H11C  2   -0.308329   -0.403792   -0.246313    11.00000   -1.50000
AFIX   0
C12   1   -0.047020   -0.069884   -0.476397    11.00000    0.04162    0.04335 =
         0.04435    0.00594    0.01851   -0.01072
AFIX 137
H12A  2    0.000541   -0.118759   -0.434410    11.00000   -1.50000
H12B  2    0.032561   -0.029157   -0.487771    11.00000   -1.50000
H12C  2   -0.101988   -0.088969   -0.548704    11.00000   -1.50000
AFIX   0
C14   1   -0.039319   -0.482161   -0.232726    11.00000    0.05639    0.02456 =
         0.03101   -0.00611    0.01011    0.01121
AFIX 137
H14A  2   -0.059737   -0.453672   -0.305127    11.00000   -1.50000
H14B  2   -0.093133   -0.536717   -0.237617    11.00000   -1.50000
H14C  2    0.071139   -0.491773   -0.211487    11.00000   -1.50000
AFIX   0
C15   1   -0.163650   -0.025878   -0.409025    11.00000    0.02739    0.03038 =
         0.02616   -0.00142    0.00891   -0.00991
C18   1   -0.476466   -0.128876   -0.495881    11.00000    0.02836    0.02429 =
         0.01803   -0.00064   -0.00206    0.00197
C1A   1   -0.071673    0.002399   -0.294163    11.00000    0.03752    0.01417 =
         0.04709    0.00294   -0.00338   -0.00174
AFIX 137
H1AA  2   -0.133267    0.042476   -0.258891    11.00000   -1.50000
H1AB  2    0.023934    0.029849   -0.305300    11.00000   -1.50000
H1AC  2   -0.047979   -0.047389   -0.246232    11.00000   -1.50000
AFIX   0
C1B   1   -0.412678   -0.150282   -0.604353    11.00000    0.04164    0.04620 =
         0.00853   -0.00353   -0.00073    0.01235
AFIX 137
H1BA  2   -0.365224   -0.099567   -0.630297    11.00000   -1.50000
H1BB  2   -0.496816   -0.169277   -0.661879    11.00000   -1.50000
H1BC  2   -0.335931   -0.195446   -0.589012    11.00000   -1.50000
AFIX   0
C1C   1   -0.594480   -0.053824   -0.521326    11.00000    0.03246    0.04000 =
         0.02625   -0.00710   -0.00655    0.00572
AFIX 137
H1CA  2   -0.639614   -0.041671   -0.454963    11.00000   -1.50000
H1CB  2   -0.675691   -0.069888   -0.582740    11.00000   -1.50000
H1CC  2   -0.541610   -0.003186   -0.542117    11.00000   -1.50000
AFIX   0
C1D   1   -0.046003   -0.465730   -0.026672    11.00000    0.07583    0.02571 =
         0.02937    0.00714    0.01201    0.00406
AFIX 137
H1DA  2    0.066179   -0.468368   -0.010470    11.00000   -1.50000
H1DB  2   -0.088150   -0.523205   -0.026402    11.00000   -1.50000
H1DC  2   -0.083527   -0.431419    0.030133    11.00000   -1.50000
AFIX   0
C1E   1    0.214858   -0.321465   -0.275936    11.00000    0.03795    0.06824 =
         0.03456   -0.00170    0.02213    0.00506
AFIX 137
H1EA  2    0.184755   -0.380474   -0.292891    11.00000   -1.50000
H1EB  2    0.324077   -0.314476   -0.279069    11.00000   -1.50000
H1EC  2    0.154546   -0.283847   -0.330545    11.00000   -1.50000
AFIX   0
C1F   1   -0.097490   -0.424867   -0.142716    11.00000    0.03777    0.02955 =
         0.02380   -0.00655    0.00954   -0.00294
C1G   1   -0.621972    0.136118   -0.203427    11.00000    0.05354    0.03231 =
         0.02588    0.00214    0.00803    0.01728
AFIX 137
H1GA  2   -0.704375    0.137390   -0.158918    11.00000   -1.50000
H1GB  2   -0.665691    0.143108   -0.282230    11.00000   -1.50000
H1GC  2   -0.549661    0.182330   -0.179964    11.00000   -1.50000
AFIX   0
C1H   1   -0.562326   -0.207976   -0.457107    11.00000    0.04394    0.04084 =
         0.03612    0.00423    0.00106   -0.01247
AFIX 137
H1HA  2   -0.496169   -0.258060   -0.454205    11.00000   -1.50000
H1HB  2   -0.657039   -0.218015   -0.509897    11.00000   -1.50000
H1HC  2   -0.587234   -0.197108   -0.383075    11.00000   -1.50000
AFIX   0
C1I   1   -0.235606    0.053156   -0.475700    11.00000    0.04212    0.02191 =
         0.03152    0.00959    0.00693   -0.00456
AFIX 137
H1IA  2   -0.303550    0.034282   -0.543159    11.00000   -1.50000
H1IB  2   -0.153777    0.088574   -0.496274    11.00000   -1.50000
H1IC  2   -0.294593    0.086152   -0.429458    11.00000   -1.50000
AFIX   0
C1J   1    0.293897   -0.354535   -0.072379    11.00000    0.02505    0.07846 =
         0.05541    0.01961   -0.00125    0.02235
AFIX 137
H1JA  2    0.283250   -0.338958    0.003729    11.00000   -1.50000
H1JB  2    0.400121   -0.345470   -0.082764    11.00000   -1.50000
H1JC  2    0.266868   -0.414422   -0.085254    11.00000   -1.50000
AFIX   0
HKLF 4
 
REM  MRMNEa in P21 #4
REM R1 =  0.0540 for    5659 Fo > 4sig(Fo)  and  0.0558 for all    5816 data
REM    339 parameters refined using      1 restraints
 
END  
     
WGHT      0.1077      1.3636 

REM Highest difference peak  0.886,  deepest hole -1.775,  1-sigma level  0.137
Q1    1  -0.2550 -0.2582 -0.2739  11.00000  0.05    0.89
Q2    1  -0.1076 -0.2517 -0.4166  11.00000  0.05    0.86
Q3    1  -0.2614 -0.2461 -0.4038  11.00000  0.05    0.81
Q4    1  -0.2230 -0.2079 -0.3097  11.00000  0.05    0.75
Q5    1  -0.0759 -0.2522 -0.2763  11.00000  0.05    0.71
Q6    1  -0.0985 -0.2127 -0.3823  11.00000  0.05    0.69
Q7    1   0.0047 -0.2527 -0.3191  11.00000  0.05    0.64
Q8    1  -0.3520 -0.3225 -0.4046  11.00000  0.05    0.60
Q9    1  -0.0586 -0.1245 -0.5331  11.00000  0.05    0.57
Q10   1  -0.1765 -0.3228 -0.4038  11.00000  0.05    0.56
Q11   1  -0.1455 -0.2485 -0.2212  11.00000  0.05    0.55
Q12   1  -0.1046 -0.2964 -0.3609  11.00000  0.05    0.53
Q13   1   0.0299 -0.2829 -0.4211  11.00000  0.05    0.52
Q14   1  -0.0057 -0.2718 -0.4532  11.00000  0.05    0.52
Q15   1  -0.3650 -0.1051 -0.3023  11.00000  0.05    0.52
Q16   1  -0.0058 -0.2479 -0.0883  11.00000  0.05    0.48
Q17   1  -0.3982 -0.2504 -0.2723  11.00000  0.05    0.47
Q18   1  -0.2068 -0.1146 -0.3173  11.00000  0.05    0.46
Q19   1  -0.2855 -0.2485 -0.6494  11.00000  0.05    0.46
Q20   1  -0.4105 -0.2232 -0.3008  11.00000  0.05    0.46
