TITL mrmn-b in P2(1)/n
CELL 1.54184 14.196147 39.456339 16.358319 90 100.1751 90
ZERR 4 0.000122 0.000253 0.000152 0 0.0008 0
LATT 1
SYMM 0.5-X,0.5+Y,0.5-Z
 
SFAC C H F O P S
UNIT 336 440 48 40 16 24
RIGU C25 S18 O1 O5 C257 S30 C125 S2 S1 F25 F50 F56 O24 O33 C300 C88 C276 O2 =
 O19 C1 F56A O14 O12 C3 F14 F40 F72 H88 C139 C116 H276 F25A F50A F72A F40A =
 F14A C78 H139 H116 H78
 
L.S. 4 0 0
PLAN  100
MORE -1
BOND $H
CONF
fmap 2 53
acta
OMIT 0 7 6
OMIT -1 5 2
OMIT 1 4 4
OMIT 0 8 2
REM <HKL>/Users/melanie/Documents/Research/Thesis/Crystal%20Structures/MRMNB-S
REM tBuH-Mine/mrmn-b.hkl</HKL>
 
WGHT    0.066000   14.065600
FVAR       1.24297   0.07733   0.05522   0.94082   0.94369   0.42305   0.07963
FVAR       0.06286   0.93000   0.06970   0.06705   0.93565   0.91296   0.91607
FVAR       0.74378
S5    6    0.653357    0.403337   -0.007482    11.00000    0.02813    0.03543 =
         0.04385    0.00783    0.00526    0.00061
P9    5    0.234484    0.399340    0.086885    11.00000    0.02994    0.02099 =
         0.02398   -0.00016    0.00368    0.00058
S11   6    0.827327    0.443966    0.011976    11.00000    0.03140    0.02666 =
         0.03762    0.00466    0.00590    0.00153
PART 1
S18   6    0.310881    0.591053    0.522794   -21.00000    0.02927    0.03043 =
         0.02809    0.00090    0.00550    0.00333
 
PART 0
S21   6    0.032107    0.297700   -0.093078    11.00000    0.03805    0.03212 =
         0.04540   -0.00875   -0.00575   -0.00349
 
P23   5    0.284694    0.412889    0.599942    11.00000    0.03095    0.02604 =
         0.02474   -0.00150    0.00078    0.00251
P26   5    0.356824    0.308467    0.149753    11.00000    0.04979    0.02708 =
         0.03576   -0.00062   -0.00955    0.00421
P28   5    0.368236    0.313764    0.650878    11.00000    0.04418    0.02671 =
         0.03959   -0.00216   -0.00917    0.00084
PART 1
S30   6    0.162791    0.546615    0.434139    91.00000    0.03385    0.02113 =
         0.03101    0.00153    0.01061    0.00171
 
PART 0
S39   6    0.037717    0.323057    0.414096    11.00000    0.03796    0.04304 =
         0.04357   -0.01135   -0.00777   -0.00103
 
PART 1
O1    4    0.355448    0.622578    0.508180   -31.00000    0.03443    0.04102 =
         0.04216    0.00224    0.00397   -0.00646
O5    4    0.368520    0.561187    0.538035    41.00000    0.03714    0.04363 =
         0.03527    0.00276    0.00543    0.01344
 
PART 0
O9    4    0.598078    0.433761   -0.013135    11.00000    0.03433    0.04535 =
         0.05807    0.01019    0.00949    0.01087
 
PART 1
F14   3    0.187482    0.496578    0.350044  -151.00000    0.06594    0.02881 =
         0.05854    0.00563    0.00017    0.00148
 
PART 0
O15   4    0.172313    0.329340    0.047873    11.00000    0.04054    0.02239 =
         0.02673   -0.00144   -0.00119    0.00240
 
PART 1
O24   4    0.187253    0.523313    0.501640  -111.00000    0.04850    0.02764 =
         0.03746    0.00763    0.01477    0.00327
F25   3    0.205875    0.623606    0.614309    51.00000    0.06220    0.03943 =
         0.04617   -0.00250    0.02059    0.01386
O33   4    0.065351    0.549044    0.392528  -101.00000    0.03482    0.03052 =
         0.04487   -0.00335    0.00927   -0.00206
 
PART 0
F36   3    0.697671    0.363489   -0.124195    11.00000    0.09138    0.03994 =
         0.05408   -0.00459    0.00071    0.01443
 
PART 1
F40   3    0.213994    0.547692    0.287361   131.00000    0.06614    0.05899 =
         0.03007    0.01062    0.01615    0.02498
 
PART 0
F42   3    0.553929    0.382546   -0.148443    11.00000    0.05988    0.08786 =
         0.07180   -0.00970   -0.01921   -0.01647
 
PART 1
F50   3    0.342724    0.607040    0.682598   -61.00000    0.04626    0.05113 =
         0.03287   -0.00651    0.00577   -0.01130
F56   3    0.236065    0.571606    0.652171   -81.00000    0.05389    0.04484 =
         0.03437    0.00329    0.01359   -0.00229
 
PART 0
O59   4    0.618926    0.373580    0.028163    11.00000    0.03430    0.04912 =
         0.06662    0.02040    0.00734   -0.00758
F62   3    0.670928    0.414463   -0.164539    11.00000    0.08995    0.04307 =
         0.04027    0.00522    0.00542   -0.00259
F68   3    0.888874    0.499133    0.094013    11.00000    0.07660    0.03850 =
         0.08519   -0.01045    0.00578   -0.01499
O70   4    0.775836    0.463755   -0.054189    11.00000    0.04586    0.03403 =
         0.04502    0.01343    0.00296   -0.00094
 
PART 1
F72   3    0.317228    0.524759    0.381886   141.00000    0.04253    0.05065 =
         0.03854   -0.00109    0.01211    0.01652
 
PART 0
O76   4    0.927112    0.437148    0.015347    11.00000    0.03253    0.03727 =
         0.05960    0.00687    0.01117   -0.00024
F77   3    0.747690    0.484289    0.108448    11.00000    0.07230    0.05429 =
         0.07786   -0.01447    0.02490    0.01464
 
O81   4    0.198253    0.346120    0.554094    11.00000    0.04350    0.02875 =
         0.03208   -0.00484   -0.00699    0.00324
F86   3    0.867892    0.456447    0.171904    11.00000    0.10816    0.05011 =
         0.04368   -0.00533   -0.00790    0.00863
C90   1    0.770103    0.408526    0.031322    11.00000    0.02887    0.02851 =
         0.03178    0.00476    0.00626    0.00255
C91   1    0.388373    0.403223    0.479603    11.00000    0.04171    0.11766 =
         0.04144   -0.02755    0.00756    0.00858
AFIX 137
H91A  2    0.389787    0.380256    0.499155    11.00000   -1.50000
H91B  2    0.444317    0.407554    0.455755    11.00000   -1.50000
H91C  2    0.332152    0.406648    0.438279    11.00000   -1.50000
AFIX   0
C96   1    0.491982    0.297962    0.636357    11.00000    0.04126    0.04178 =
         0.06841   -0.00339    0.00143    0.00207
 
C2    1    0.424148    0.414610    0.118534    11.00000    0.03326    0.04614 =
         0.04418   -0.00415    0.00293   -0.00625
AFIX 137
H2A   2    0.414764    0.432795    0.155251    11.00000   -1.50000
H2B   2    0.482664    0.418190    0.097990    11.00000   -1.50000
H2C   2    0.427641    0.393506    0.148124    11.00000   -1.50000
AFIX   0
 
C5    1    0.386545    0.427663    0.552909    11.00000    0.03048    0.05099 =
         0.03193    0.00141    0.00863    0.00569
C11   1    0.012184    0.365039   -0.133703    11.00000    0.03114    0.04247 =
         0.02667   -0.00400   -0.00022    0.00540
AFIX  43
H11   2   -0.030896    0.357789   -0.179958    11.00000   -1.20000
AFIX   0
C15   1    0.274419    0.196932   -0.043115    11.00000    0.07020    0.02755 =
         0.04564   -0.00455    0.00077    0.00781
AFIX 137
H15A  2    0.334414    0.190498   -0.009898    11.00000   -1.50000
H15B  2    0.279753    0.196307   -0.100787    11.00000   -1.50000
H15C  2    0.225446    0.181454   -0.033292    11.00000   -1.50000
AFIX   0
C17   1    0.326205    0.447692    0.001372    11.00000    0.04512    0.04120 =
         0.03957    0.00293    0.01302   -0.01003
AFIX 137
H17A  2    0.272338    0.446349   -0.043168    11.00000   -1.50000
H17B  2    0.382592    0.453326   -0.020636    11.00000   -1.50000
H17C  2    0.314713    0.464868    0.040002    11.00000   -1.50000
AFIX   0
C23   1    0.357490    0.385817   -0.016203    11.00000    0.03475    0.04902 =
         0.04410   -0.01150    0.01331   -0.00013
AFIX 137
H23A  2    0.360631    0.364105    0.010628    11.00000   -1.50000
H23B  2    0.416648    0.390147   -0.035090    11.00000   -1.50000
H23C  2    0.305802    0.385904   -0.062788    11.00000   -1.50000
AFIX   0
 
C25   1    0.210307    0.585746    0.454451    11.00000    0.03250    0.02303 =
         0.03640    0.00404    0.00749    0.00371
C30   1    0.282463    0.283090    0.067199    11.00000    0.04837    0.02271 =
         0.03193    0.00312   -0.00079    0.00109
C32   1   -0.001440    0.454386    0.368399    11.00000    0.03790    0.05315 =
         0.03718    0.01093    0.00153    0.00866
AFIX 137
H32A  2   -0.054897    0.459204    0.395190    11.00000   -1.50000
H32B  2   -0.024260    0.448255    0.311559    11.00000   -1.50000
H32C  2    0.038469    0.474117    0.370388    11.00000   -1.50000
AFIX   0
C33   1    0.282262    0.293766    0.566333    11.00000    0.04145    0.03067 =
         0.03356   -0.00257   -0.00036   -0.00370
 
C36   1    0.889684    0.361068    0.051283    11.00000    0.03833    0.02825 =
         0.03903    0.00445    0.01160    0.00223
AFIX  43
H36   2    0.902736    0.365362   -0.001493    11.00000   -1.20000
AFIX   0
 
C49   1    0.206608    0.313233    0.525126    11.00000    0.03896    0.02991 =
         0.03215   -0.00431    0.00194   -0.00339
C51   1    0.478884    0.422769    0.616283    11.00000    0.03237    0.05712 =
         0.04322   -0.00181    0.00447    0.00219
AFIX 137
H51A  2    0.480069    0.438511    0.661199    11.00000   -1.50000
H51B  2    0.533135    0.426692    0.589857    11.00000   -1.50000
H51C  2    0.481271    0.400038    0.637478    11.00000   -1.50000
AFIX   0
C56   1    0.564866    0.320640    0.691382    11.00000    0.04746    0.06912 =
         0.12974   -0.02425   -0.01795    0.00134
AFIX 137
H56A  2    0.551004    0.343981    0.677667    11.00000   -1.50000
H56B  2    0.628158    0.315292    0.682246    11.00000   -1.50000
H56C  2    0.561056    0.316841    0.748672    11.00000   -1.50000
AFIX   0
 
C58   1    0.918729    0.328393    0.177389    11.00000    0.04446    0.02543 =
         0.03967    0.00667   -0.00305    0.00309
AFIX  43
H58   2    0.951598    0.311288    0.209663    11.00000   -1.20000
AFIX   0
 
C61   1    0.182469    0.404749    0.520098    11.00000    0.03000    0.03616 =
         0.02336   -0.00266    0.00275    0.00527
C65   1    0.141582    0.280217   -0.041682    11.00000    0.03966    0.02674 =
         0.03351   -0.00056    0.00242   -0.00269
C67   1    0.937793    0.335118    0.099026    11.00000    0.03486    0.02942 =
         0.05221    0.00376    0.00957    0.00369
AFIX  43
H67   2    0.982996    0.322239    0.078093    11.00000   -1.20000
AFIX   0
 
C78   1    0.076732    0.671909    0.323591    11.00000    0.05356    0.02319 =
         0.03529    0.00003   -0.00833    0.00256
AFIX  43
H78   2    0.048104    0.690897    0.296038    11.00000   -1.20000
AFIX   0
 
C79   1    0.060368    0.341080   -0.079393    11.00000    0.03132    0.02988 =
         0.03219   -0.00386    0.00393    0.00017
C81   1    0.079652    0.364921    0.436012    11.00000    0.03222    0.04277 =
         0.02767   -0.00754    0.00001    0.00313
C88   1    0.072154    0.625304    0.416908    11.00000    0.03822    0.02665 =
         0.03221   -0.00083    0.00289    0.00407
AFIX  43
H88   2    0.039715    0.613050    0.451821    11.00000   -1.20000
AFIX   0
 
C89   1    0.249243    0.435855    0.687340    11.00000    0.03774    0.03129 =
         0.02657   -0.00195    0.00695   -0.00309
C103  1    0.340475    0.413557    0.045772    11.00000    0.03041    0.03572 =
         0.03404   -0.00368    0.00865   -0.00419
C105  1    0.550598    0.324253    0.195945    11.00000    0.05536    0.05535 =
         0.10042    0.00275   -0.01718   -0.01164
AFIX 137
H10A  2    0.533113    0.345780    0.170354    11.00000   -1.50000
H10B  2    0.616838    0.319780    0.194866    11.00000   -1.50000
H10C  2    0.540570    0.324684    0.252456    11.00000   -1.50000
AFIX   0
 
C114  1    0.208688    0.471219    0.664139    11.00000    0.06373    0.04393 =
         0.03803   -0.00617    0.01003    0.01623
AFIX 137
H11A  2    0.254864    0.484293    0.641321    11.00000   -1.50000
H11B  2    0.194705    0.482307    0.712848    11.00000   -1.50000
H11C  2    0.151071    0.469224    0.623702    11.00000   -1.50000
AFIX   0
 
C116  1    0.167140    0.662355    0.313541    11.00000    0.05146    0.03004 =
         0.03861    0.00917   -0.00093   -0.00873
AFIX  43
H116  2    0.199526    0.674962    0.279234    11.00000   -1.20000
AFIX   0
 
C117  1    0.376875    0.464330    0.524815    11.00000    0.04344    0.07453 =
         0.08283    0.04274    0.02324    0.00837
AFIX 137
H11D  2    0.318841    0.467084    0.485216    11.00000   -1.50000
H11E  2    0.430588    0.470430    0.499546    11.00000   -1.50000
H11F  2    0.375076    0.478682    0.571902    11.00000   -1.50000
AFIX   0
C119  1    0.230485    0.209244    0.451679    11.00000    0.07531    0.03047 =
         0.05359   -0.00955   -0.00303   -0.00318
AFIX 137
H11G  2    0.291827    0.205866    0.435940    11.00000   -1.50000
H11H  2    0.180864    0.204083    0.405437    11.00000   -1.50000
H11I  2    0.224593    0.194608    0.497385    11.00000   -1.50000
AFIX   0
 
C121  1    0.199200    0.297564    0.022280    11.00000    0.04301    0.02045 =
         0.03033    0.00072    0.00288   -0.00008
C125  1    0.163516    0.615467    0.407588    11.00000    0.03696    0.02066 =
         0.02965    0.00088    0.00249    0.00009
C127  1    0.138638    0.299864    0.461633    11.00000    0.03747    0.03624 =
         0.03051   -0.00523    0.00134   -0.00388
C129  1   -0.031615    0.424918   -0.177160    11.00000    0.04557    0.04960 =
         0.03283    0.00549   -0.00065    0.01434
AFIX 137
H12A  2   -0.039613    0.417000   -0.233456    11.00000   -1.50000
H12B  2    0.000748    0.446379   -0.172733    11.00000   -1.50000
H12C  2   -0.093223    0.427482   -0.161375    11.00000   -1.50000
AFIX   0
C134  1    0.488402    0.296173    0.148020    11.00000    0.04507    0.04573 =
         0.06451    0.00649   -0.00250    0.00096
 
C139  1    0.028639    0.653374    0.374411    11.00000    0.04161    0.03271 =
         0.03772   -0.00417   -0.00302    0.00967
AFIX  43
H139  2   -0.032969    0.659591    0.380393    11.00000   -1.20000
AFIX   0
 
C142  1    0.306397    0.253493    0.253257    11.00000    0.07702    0.03635 =
         0.04406    0.00982    0.00073    0.00560
AFIX 137
H14A  2    0.269408    0.244315    0.203363    11.00000   -1.50000
H14B  2    0.276014    0.248107    0.299605    11.00000   -1.50000
H14C  2    0.369519    0.243894    0.261963    11.00000   -1.50000
AFIX   0
C143  1    0.126168    0.351592   -0.011359    11.00000    0.02827    0.02697 =
         0.02509    0.00100    0.00486    0.00266
 
C146  1    0.850623    0.347261    0.207174    11.00000    0.06423    0.03831 =
         0.02965    0.00845    0.00900    0.00806
AFIX  43
H146  2    0.836220    0.342476    0.259258    11.00000   -1.20000
AFIX   0
C150  1    0.822399    0.380572    0.081862    11.00000    0.03079    0.02467 =
         0.03064    0.00286    0.00300    0.00045
 
C154  1    0.132598    0.431549    0.475827    11.00000    0.03357    0.03547 =
         0.02781    0.00098    0.00628    0.00499
AFIX  43
H154  2    0.151303    0.453756    0.489087    11.00000   -1.20000
AFIX   0
 
C159  1    0.027011    0.399560   -0.120357    11.00000    0.03271    0.03907 =
         0.02642    0.00274    0.00595    0.00933
C162  1    0.303995    0.250051    0.044569    11.00000    0.04756    0.02657 =
         0.03745    0.00424    0.00015    0.00526
AFIX  43
H162  2    0.357907    0.239485    0.074331    11.00000   -1.20000
AFIX   0
C164  1    0.144000    0.386245    0.001895    11.00000    0.02661    0.02823 =
         0.02167   -0.00086    0.00612    0.00129
C167  1    0.155533    0.460893    0.133491    11.00000    0.05538    0.02635 =
         0.03906   -0.00209    0.01345    0.00576
AFIX 137
H16A  2    0.211864    0.473170    0.126255    11.00000   -1.50000
H16B  2    0.125435    0.472180    0.174062    11.00000   -1.50000
H16C  2    0.111835    0.459915    0.081567    11.00000   -1.50000
AFIX   0
 
C179  1    0.286618    0.259966    0.541492    11.00000    0.05056    0.02792 =
         0.04551   -0.00080   -0.00119   -0.00157
AFIX  43
H179  2    0.335483    0.246319    0.569144    11.00000   -1.20000
AFIX   0
 
C184  1    0.093737    0.405122    0.176436    11.00000    0.04320    0.03671 =
         0.03363   -0.00053    0.01417   -0.00052
AFIX 137
H18A  2    0.047405    0.405320    0.126003    11.00000   -1.50000
H18B  2    0.066909    0.415636    0.220028    11.00000   -1.50000
H18C  2    0.110940    0.382140    0.191536    11.00000   -1.50000
AFIX   0
 
C199  1    0.055756    0.425421    0.412532    11.00000    0.03146    0.04702 =
         0.02403    0.00520    0.00796    0.00748
C203  1    0.183449    0.424792    0.163199    11.00000    0.03918    0.02648 =
         0.02491   -0.00234    0.00629    0.00119
C206  1    0.323216    0.256276    0.751751    11.00000    0.09232    0.04210 =
         0.05794    0.01171    0.01643    0.00780
AFIX 137
H20A  2    0.284097    0.247659    0.702217    11.00000   -1.50000
H20B  2    0.295523    0.250120    0.799119    11.00000   -1.50000
H20C  2    0.386325    0.246811    0.757321    11.00000   -1.50000
AFIX   0
C207  1    0.153905    0.371248    0.501680    11.00000    0.03206    0.03594 =
         0.02641   -0.00257   -0.00052    0.00601
 
C209  1    0.248702    0.232366   -0.020114    11.00000    0.05326    0.02393 =
         0.03721    0.00049    0.00389    0.00184
C211  1    0.167597    0.248118   -0.063683    11.00000    0.05135    0.02585 =
         0.03528   -0.00434    0.00217   -0.00514
AFIX  43
H211  2    0.130371    0.236980   -0.108112    11.00000   -1.20000
AFIX   0
C213  1    0.212579    0.306955    0.240084    11.00000    0.08646    0.04111 =
         0.03855    0.00554    0.01320    0.00593
AFIX 137
H21A  2    0.215860    0.331254    0.239451    11.00000   -1.50000
H21B  2    0.186515    0.299689    0.287479    11.00000   -1.50000
H21C  2    0.172280    0.299166    0.190246    11.00000   -1.50000
AFIX   0
 
C216  1    0.644147    0.390549   -0.117032    11.00000    0.04857    0.03268 =
         0.04870    0.00345   -0.00533   -0.00099
C218  1    0.336408    0.438150    0.757095    11.00000    0.04796    0.05179 =
         0.02786   -0.00488    0.00351   -0.00066
AFIX 137
H21D  2    0.364593    0.416096    0.767307    11.00000   -1.50000
H21E  2    0.316792    0.446370    0.806721    11.00000   -1.50000
H21F  2    0.382511    0.453424    0.741010    11.00000   -1.50000
AFIX   0
 
C221  1    0.313210    0.292212    0.244987    11.00000    0.07735    0.03298 =
         0.03245    0.00475   -0.00545    0.00311
C224  1    0.221259    0.245918    0.477435    11.00000    0.05884    0.02989 =
         0.03979   -0.00509    0.00363   -0.00591
C233  1    0.147258    0.266343    0.437796    11.00000    0.04868    0.03935 =
         0.03182   -0.00529   -0.00139   -0.00959
AFIX  43
H233  2    0.102746    0.257429    0.394582    11.00000   -1.20000
AFIX   0
 
C236  1    0.587849    0.472454    0.209035    11.00000    0.04330    0.04122 =
         0.06405   -0.00011    0.00328    0.00085
AFIX  43
H236  2    0.643984    0.460622    0.206751    11.00000   -1.20000
AFIX   0
 
C237  1    0.832906    0.472374    0.101691    11.00000    0.05237    0.03295 =
         0.05146   -0.00160    0.00349    0.00537
C242  1    0.032187    0.391983    0.391548    11.00000    0.02679    0.05424 =
         0.02268   -0.00077    0.00159    0.00444
AFIX  43
H242  2   -0.016407    0.387510    0.346778    11.00000   -1.20000
AFIX   0
C247  1    0.228334    0.308585    0.746183    11.00000    0.09729    0.06480 =
         0.05135    0.01228    0.02426    0.01914
AFIX 137
H24A  2    0.230195    0.332905    0.747182    11.00000   -1.50000
H24B  2    0.205259    0.300432    0.794306    11.00000   -1.50000
H24C  2    0.186344    0.301090    0.696958    11.00000   -1.50000
AFIX   0
 
C250  1    0.803457    0.373282    0.160213    11.00000    0.05156    0.03651 =
         0.03507    0.00494    0.01302    0.01210
AFIX  43
H250  2    0.758365    0.386077    0.181517    11.00000   -1.20000
AFIX   0
 
PART 1
C257  1    0.272990    0.599210    0.623371   -71.00000    0.03776    0.03695 =
         0.03059   -0.00490    0.00421    0.00072
 
PART 0
C259  1    0.420347    0.507059    0.215381    11.00000    0.04551    0.03908 =
         0.06411   -0.00668    0.00406    0.00087
AFIX  43
H259  2    0.363775    0.518576    0.217901    11.00000   -1.20000
AFIX   0
 
C263  1    0.093679    0.409802   -0.052804    11.00000    0.03328    0.02774 =
         0.02778    0.00254    0.00929    0.00403
AFIX  43
H263  2    0.105226    0.432810   -0.043621    11.00000   -1.20000
AFIX   0
C269  1    0.505976    0.297762    0.056329    11.00000    0.05620    0.05210 =
         0.07749    0.01486    0.01005    0.00399
AFIX 137
H26A  2    0.477936    0.278237    0.026485    11.00000   -1.50000
H26B  2    0.573542    0.298085    0.056074    11.00000   -1.50000
H26C  2    0.477235    0.317937    0.030170    11.00000   -1.50000
AFIX   0
C274  1    0.256119    0.425264    0.244805    11.00000    0.04841    0.04659 =
         0.02916   -0.00853    0.00237    0.00268
AFIX 137
H27A  2    0.276077    0.402515    0.259804    11.00000   -1.50000
H27B  2    0.226956    0.435026    0.287968    11.00000   -1.50000
H27C  2    0.310734    0.438545    0.237638    11.00000   -1.50000
AFIX   0
 
C276  1    0.210535    0.633903    0.354441    11.00000    0.03784    0.03287 =
         0.04099    0.00794    0.00459   -0.00191
AFIX  43
H276  2    0.270989    0.627230    0.346201    11.00000   -1.20000
AFIX   0
 
C281  1    0.329095    0.294760    0.746347    11.00000    0.07377    0.03811 =
         0.03545    0.00222   -0.00347    0.00461
C283  1    0.540502    0.490385    0.138398    11.00000    0.05305    0.04128 =
         0.05498   -0.00354    0.00762   -0.01118
AFIX  43
H283  2    0.565114    0.490646    0.089352    11.00000   -1.20000
AFIX   0
C287  1    0.550946    0.472691    0.279354    11.00000    0.05075    0.04349 =
         0.05533    0.00636   -0.00427    0.00407
AFIX  43
H287  2    0.582617    0.461231    0.325876    11.00000   -1.20000
AFIX   0
 
C294  1    0.522848    0.261257    0.658680    11.00000    0.05674    0.04227 =
         0.14642   -0.00091    0.00714    0.00724
AFIX 137
H29D  2    0.526770    0.257835    0.717287    11.00000   -1.50000
H29E  2    0.584323    0.257129    0.643864    11.00000   -1.50000
H29F  2    0.476716    0.245900    0.628820    11.00000   -1.50000
AFIX   0
 
C296  1    0.526376    0.261726    0.184901    11.00000    0.05836    0.05117 =
         0.08581    0.01509   -0.01077    0.00096
AFIX 137
H29A  2    0.523801    0.261237    0.243139    11.00000   -1.50000
H29B  2    0.591365    0.258757    0.177223    11.00000   -1.50000
H29C  2    0.487558    0.243778    0.157256    11.00000   -1.50000
AFIX   0
 
C298  1    0.171523    0.413994    0.715402    11.00000    0.05925    0.06614 =
         0.05167   -0.01019    0.02685   -0.02427
AFIX 137
H29G  2    0.116913    0.412771    0.671542    11.00000   -1.50000
H29H  2    0.152981    0.423930    0.763734    11.00000   -1.50000
H29I  2    0.196014    0.391594    0.728499    11.00000   -1.50000
AFIX   0
 
PART 1
C300  1    0.224246    0.528381    0.354270   121.00000    0.04368    0.02811 =
         0.03521   -0.00119    0.01058    0.00439
 
PART 0
C308  1    0.457441    0.507350    0.144187    11.00000    0.05636    0.03383 =
         0.05836    0.00718   -0.01071   -0.00631
AFIX  43
H308  2    0.425871    0.519298    0.098427    11.00000   -1.20000
AFIX   0
 
C312  1    0.376794    0.306679    0.322654    11.00000    0.10775    0.05715 =
         0.03428   -0.00105   -0.01020   -0.00492
AFIX 137
H31A  2    0.439710    0.297050    0.328247    11.00000   -1.50000
H31B  2    0.349708    0.301196    0.370787    11.00000   -1.50000
H31C  2    0.380787    0.330854    0.317570    11.00000   -1.50000
AFIX   0
 
C314  1    0.500547    0.304673    0.546538    11.00000    0.06046    0.12620 =
         0.08376    0.02251    0.01977    0.01115
AFIX 137
H31D  2    0.462363    0.288548    0.511228    11.00000   -1.50000
H31E  2    0.566255    0.302528    0.540269    11.00000   -1.50000
H31F  2    0.478437    0.327183    0.531346    11.00000   -1.50000
AFIX   0
 
C320  1    0.466821    0.489663    0.283658    11.00000    0.06101    0.04943 =
         0.05651   -0.00357    0.01244   -0.00275
AFIX  43
H320  2    0.441733    0.489331    0.332463    11.00000   -1.20000
AFIX   0
 
C322  1    0.393694    0.308505    0.824457    11.00000    0.12768    0.08665 =
         0.04110   -0.00160   -0.01839   -0.02128
AFIX 137
H32D  2    0.458282    0.301108    0.825298    11.00000   -1.50000
H32E  2    0.371704    0.300184    0.872935    11.00000   -1.50000
H32F  2    0.391519    0.332823    0.824015    11.00000   -1.50000
AFIX   0
 
H9    2    0.263970    0.374319    0.126948    11.00000    0.02960
H23   2    0.310877    0.385837    0.632485    11.00000    0.03812
PART 2
S2    6    0.238613    0.593306    0.579513    21.00000    0.03194    0.03034 =
         0.03095    0.00381    0.00766    0.00034
O2    4    0.191391    0.613601    0.619872    31.00000    0.03248    0.02369 =
         0.03741    0.00525    0.01538   -0.00578
O19   4    0.241742    0.559794    0.618005   -41.00000    0.02185    0.02546 =
         0.02973    0.00231    0.00161   -0.00397
S1    6    0.256269    0.556760    0.428444   -91.00000    0.03904    0.02237 =
         0.03097    0.00370    0.01052    0.00410
O14   4    0.329719    0.538168    0.480693   111.00000    0.03346    0.02865 =
         0.03240    0.00405    0.01417    0.00838
O12   4    0.265433    0.564830    0.344060   101.00000    0.04522    0.02762 =
         0.03575    0.00693    0.01287    0.00221
C1    1    0.354684    0.611007    0.615844    71.00000    0.03273    0.03773 =
         0.04053    0.00265    0.01093   -0.00635
F25A  3    0.367216    0.640496    0.576706   -51.00000    0.02953    0.04170 =
         0.04689    0.00645    0.00385   -0.00981
F56A  3    0.355448    0.612459    0.677495    61.00000    0.05911    0.06159 =
         0.04148   -0.00265    0.01666   -0.01720
F50A  3    0.424618    0.590428    0.594584    81.00000    0.03269    0.04283 =
         0.03738    0.00393    0.00850   -0.00611
F72A  3    0.137924    0.515725    0.481901  -141.00000    0.04762    0.03296 =
         0.03837    0.00245    0.01234   -0.01101
F40A  3    0.189323    0.498479    0.328590   151.00000    0.08203    0.04615 =
         0.06410   -0.02919    0.03448   -0.01574
C3    1    0.151234    0.525245    0.404659  -121.00000    0.04719    0.02886 =
         0.03642    0.00012    0.01220   -0.00434
F14A  3    0.077990    0.543560    0.372833  -131.00000    0.04802    0.03520 =
         0.03615    0.00013    0.01164   -0.00396
HKLF 4
 
REM  mrmn-b in P2(1)/n
REM R1 =  0.0549 for   15661 Fo > 4sig(Fo)  and  0.0623 for all   17960 data
REM   1221 parameters refined using    291 restraints
 
END  
     
WGHT      0.0660     14.0664 

REM Highest difference peak  1.107,  deepest hole -0.557,  1-sigma level  0.072
Q1    1   0.3040  0.3008  0.1605  11.00000  0.05    1.11
Q2    1   0.0640  0.3392  0.3617  11.00000  0.05    0.74
Q3    1   0.3209  0.3194  0.6706  11.00000  0.05    0.72
Q4    1   0.8352  0.5002  0.1219  11.00000  0.05    0.63
Q5    1   0.7534  0.3999 -0.0642  11.00000  0.05    0.62
Q6    1   0.5745  0.2775  0.1171  11.00000  0.05    0.59
Q7    1   0.2431  0.4032  0.5820  11.00000  0.05    0.49
Q8    1   0.6004  0.2618  0.1963  11.00000  0.05    0.48
Q9    1   0.5584  0.2428  0.1225  11.00000  0.05    0.48
Q10   1   0.0313  0.2991  0.4201  11.00000  0.05    0.48
Q11   1   0.4932  0.2588  0.5950  11.00000  0.05    0.48
Q12   1   0.7795  0.4418  0.0638  11.00000  0.05    0.47
Q13   1   0.6495  0.4009 -0.0618  11.00000  0.05    0.46
Q14   1   0.5769  0.4210 -0.0540  11.00000  0.05    0.46
Q15   1   0.6147  0.3019  0.1923  11.00000  0.05    0.45
Q16   1   0.0478  0.3213 -0.0811  11.00000  0.05    0.44
Q17   1   0.6026  0.3194  0.1436  11.00000  0.05    0.43
Q18   1   0.2902  0.4031  0.0844  11.00000  0.05    0.42
Q19   1   0.3375  0.4219  0.5786  11.00000  0.05    0.40
Q20   1   0.5046  0.4981  0.1958  11.00000  0.05    0.38
Q21   1   0.2387  0.3579  0.5018  11.00000  0.05    0.36
Q22   1   0.8367  0.3621  0.0657  11.00000  0.05    0.36
Q23   1   0.5736  0.2635  0.6195  11.00000  0.05    0.35
Q24   1   0.6164  0.3612 -0.0297  11.00000  0.05    0.35
Q25   1   0.1836  0.6044  0.4276  11.00000  0.05    0.35
Q26   1   0.8370  0.4603  0.0633  11.00000  0.05    0.35
Q27   1   0.7246  0.4011 -0.0118  11.00000  0.05    0.34
Q28   1   0.7992  0.4146  0.0100  11.00000  0.05    0.33
Q29   1   0.6834  0.4790  0.1135  11.00000  0.05    0.32
Q30   1   0.1335  0.6192  0.4187  11.00000  0.05    0.31
Q31   1   0.3388  0.1971 -0.0611  11.00000  0.05    0.31
Q32   1  -0.0274  0.3019 -0.0977  11.00000  0.05    0.30
Q33   1   0.7724  0.3659 -0.1136  11.00000  0.05    0.30
Q34   1   0.3179  0.3025  0.6053  11.00000  0.05    0.30
Q35   1   0.4246  0.4206  0.5907  11.00000  0.05    0.29
Q36   1   0.1241  0.4035 -0.0349  11.00000  0.05    0.29
Q37   1   0.0889  0.2798 -0.0506  11.00000  0.05    0.29
Q38   1   0.4379  0.3025  0.6420  11.00000  0.05    0.28
Q39   1   0.1628  0.4416  0.1468  11.00000  0.05    0.28
Q40   1   0.0977  0.5427  0.4337  11.00000  0.05    0.28
Q41   1   0.0276  0.3003 -0.0396  11.00000  0.05    0.28
Q42   1   0.3817  0.4353  0.5349  11.00000  0.05    0.28
Q43   1   0.7204  0.4580  0.1334  11.00000  0.05    0.28
Q44   1   0.9632  0.4584  0.0892  11.00000  0.05    0.27
Q45   1   0.8212  0.3801  0.1180  11.00000  0.05    0.27
Q46   1   0.0227  0.3817 -0.1222  11.00000  0.05    0.27
Q47   1   0.0429  0.3833  0.4149  11.00000  0.05    0.27
Q48   1   0.7945  0.4438  0.1561  11.00000  0.05    0.27
Q49   1   0.1848  0.3976  0.0338  11.00000  0.05    0.27
Q50   1   0.0600  0.6382  0.4013  11.00000  0.05    0.27
Q51   1   0.7811  0.3737 -0.1042  11.00000  0.05    0.27
Q52   1   0.2219  0.5973  0.4860  11.00000  0.05    0.27
Q53   1   0.1571  0.3021  0.5074  11.00000  0.05    0.26
Q54   1   0.0987  0.4225  0.4565  11.00000  0.05    0.26
Q55   1   0.1968  0.5375  0.3986  11.00000  0.05    0.26
Q56   1   0.1622  0.3007  0.2520  11.00000  0.05    0.26
Q57   1   0.7955  0.4549  0.1797  11.00000  0.05    0.26
Q58   1   0.9229  0.4410  0.0596  11.00000  0.05    0.25
Q59   1   0.1832  0.3224  0.0370  11.00000  0.05    0.25
Q60   1   0.2241  0.2781  0.0649  11.00000  0.05    0.25
Q61   1   0.2177  0.4227  0.1968  11.00000  0.05    0.25
Q62   1   0.2654  0.5172  0.3770  11.00000  0.05    0.25
Q63   1   0.1761  0.6223  0.3835  11.00000  0.05    0.25
Q64   1   0.2715  0.5776  0.4858  11.00000  0.05    0.25
Q65   1   0.2765  0.2631  0.0616  11.00000  0.05    0.24
Q66   1   0.2587  0.2954  0.2602  11.00000  0.05    0.24
Q67   1   0.9050  0.4775 -0.0184  11.00000  0.05    0.24
Q68   1   0.3729  0.3205  0.5948  11.00000  0.05    0.24
Q69   1   0.6149  0.3031  0.7004  11.00000  0.05    0.24
Q70   1   0.1905  0.2398 -0.0211  11.00000  0.05    0.24
Q71   1   0.6012  0.2985  0.7168  11.00000  0.05    0.24
Q72   1   0.1573  0.4187  0.5013  11.00000  0.05    0.24
Q73   1   0.0735  0.4010 -0.0982  11.00000  0.05    0.24
Q74   1   0.7925  0.3973  0.0573  11.00000  0.05    0.24
Q75   1  -0.0338  0.4419  0.3542  11.00000  0.05    0.24
Q76   1   0.3764  0.4194  0.0856  11.00000  0.05    0.24
Q77   1   0.2390  0.2975  0.5718  11.00000  0.05    0.24
Q78   1  -0.0002  0.4794  0.3970  11.00000  0.05    0.24
Q79   1   0.5942  0.3191  0.6240  11.00000  0.05    0.24
Q80   1   0.3398  0.5792  0.5388  11.00000  0.05    0.24
Q81   1   0.2157  0.4229  0.6963  11.00000  0.05    0.23
Q82   1   0.1839  0.5594  0.4471  11.00000  0.05    0.23
Q83   1   0.3630  0.5954  0.5188  11.00000  0.05    0.23
Q84   1  -0.0352  0.3191  0.4160  11.00000  0.05    0.23
Q85   1   0.1462  0.3727 -0.0023  11.00000  0.05    0.23
Q86   1   0.2911  0.4392  0.7225  11.00000  0.05    0.23
Q87   1   0.5988  0.2610  0.6885  11.00000  0.05    0.23
Q88   1   0.1106  0.6621  0.3060  11.00000  0.05    0.23
Q89   1   0.2251  0.3032  0.5470  11.00000  0.05    0.23
Q90   1   0.0805  0.2968  0.4662  11.00000  0.05    0.22
Q91   1   0.2309  0.5746  0.4422  11.00000  0.05    0.22
Q92   1   0.1838  0.5405  0.4757  11.00000  0.05    0.22
Q93   1   0.3420  0.4585  0.4813  11.00000  0.05    0.22
Q94   1   0.8742  0.3376  0.1852  11.00000  0.05    0.22
Q95   1   0.0323  0.4330  0.3987  11.00000  0.05    0.22
Q96   1   0.9225  0.3608  0.0883  11.00000  0.05    0.22
Q97   1   0.1528  0.2002  0.4417  11.00000  0.05    0.22
Q98   1   0.1355  0.3643 -0.0034  11.00000  0.05    0.22
Q99   1   0.2003  0.4172  0.1205  11.00000  0.05    0.22
Q100  1   0.6990  0.4600  0.0253  11.00000  0.05    0.22
