TITL MRMN-C in P2(1)/c
CELL 0.71073 15.26769 10.986502 19.051339 90 95.2318 90
ZERR 4 0.000081 0.000069 0.000127 0 0.0005 0
LATT 1
SYMM -X,0.5+Y,0.5-Z
 
SFAC C H Cl O P Pt S
UNIT 120 184 8 4 8 4 4
 
L.S. 4 0 0
PLAN  20
MORE -1
BOND $H
CONF
fmap 2 53
acta 52
REM <HKL>/Users/melanie/Desktop/Crystal%20structures%20from%20pc/MRMNC/MRMN-C.
REM HKL</HKL>
 
WGHT    0.014100    1.403400
FVAR       1.46092
PT2   6    0.254920    0.455409    0.222443    11.00000    0.01028    0.01057 =
         0.01208    0.00095    0.00151    0.00078
S2    7    0.277589   -0.015665    0.343102    11.00000    0.02590    0.01258 =
         0.02055    0.00485    0.00209   -0.00148
CL9   3    0.161418    0.616771    0.237327    11.00000    0.01821    0.01438 =
         0.02102   -0.00050    0.00073    0.00593
CL12  3    0.364826    0.330348    0.186356    11.00000    0.01385    0.01871 =
         0.01767   -0.00106    0.00328    0.00392
P14   5    0.155209    0.342768    0.149706    11.00000    0.01184    0.01389 =
         0.01288    0.00079    0.00142   -0.00075
P19   5    0.344573    0.482222    0.326570    11.00000    0.01143    0.01101 =
         0.01316    0.00102    0.00111   -0.00021
C3    1    0.138232   -0.131141    0.090473    11.00000    0.06087    0.02014 =
         0.02414   -0.00471    0.00292   -0.01234
AFIX 137
H3A   2    0.187320   -0.179408    0.078904    11.00000   -1.50000
H3B   2    0.110894   -0.093876    0.048458    11.00000   -1.50000
H3C   2    0.096356   -0.182215    0.110967    11.00000   -1.50000
AFIX   0
O5    4    0.242393    0.234954    0.294760    11.00000    0.01439    0.01238 =
         0.01498   -0.00024    0.00096    0.00076
C12   1    0.209716   -0.064203    0.208552    11.00000    0.02829    0.01388 =
         0.02189    0.00082    0.00472   -0.00325
AFIX  43
H12   2    0.220300   -0.145528    0.219914    11.00000   -1.20000
AFIX   0
C16   1    0.169991   -0.033185    0.142687    11.00000    0.03246    0.01582 =
         0.02098   -0.00220    0.00544   -0.00619
C17   1    0.233768    0.026121    0.257670    11.00000    0.01943    0.01429 =
         0.01916    0.00171    0.00416   -0.00174
C1    1    0.350169    0.107533    0.358356    11.00000    0.01873    0.01301 =
         0.01484    0.00216    0.00361    0.00130
C8    1    0.158141    0.089370    0.126830    11.00000    0.02804    0.01721 =
         0.01679    0.00060    0.00174   -0.00534
AFIX  43
H8    2    0.132591    0.110228    0.082272    11.00000   -1.20000
AFIX   0
C11   1    0.337845    0.495829    0.475947    11.00000    0.02213    0.02010 =
         0.01372    0.00082    0.00112   -0.00055
AFIX 137
H11A  2    0.349010    0.409828    0.477108    11.00000   -1.50000
H11B  2    0.304457    0.517614    0.514390    11.00000   -1.50000
H11C  2    0.392713    0.539067    0.480130    11.00000   -1.50000
AFIX   0
C2    1    0.580009    0.167160    0.445170    11.00000    0.02423    0.02781 =
         0.03063    0.00148   -0.00853    0.00703
AFIX 137
H2A   2    0.576697    0.144750    0.493561    11.00000   -1.50000
H2B   2    0.613444    0.240842    0.442951    11.00000   -1.50000
H2C   2    0.608151    0.103218    0.421245    11.00000   -1.50000
AFIX   0
C19   1    0.168763    0.506029    0.042610    11.00000    0.02693    0.02087 =
         0.01774    0.00350    0.00038   -0.00156
AFIX 137
H19A  2    0.115522    0.542789    0.055583    11.00000   -1.50000
H19B  2    0.176281    0.524994   -0.005663    11.00000   -1.50000
H19C  2    0.217885    0.536976    0.072350    11.00000   -1.50000
AFIX   0
C22   1    0.249351    0.311836    0.030171    11.00000    0.02465    0.02643 =
         0.01609   -0.00013    0.00614    0.00185
AFIX 137
H22A  2    0.298282    0.349343    0.057123    11.00000   -1.50000
H22B  2    0.253704    0.326056   -0.019108    11.00000   -1.50000
H22C  2    0.249939    0.225833    0.039112    11.00000   -1.50000
AFIX   0
C30   1    0.432496    0.089432    0.394395    11.00000    0.02222    0.01495 =
         0.01775    0.00351    0.00189    0.00593
AFIX  43
H30   2    0.450193    0.011268    0.408004    11.00000   -1.20000
AFIX   0
C31   1    0.323794    0.223104    0.333993    11.00000    0.01477    0.01282 =
         0.01206    0.00125    0.00215    0.00211
C38   1   -0.018132    0.238932    0.140825    11.00000    0.01873    0.03557 =
         0.02961    0.00032    0.00224   -0.01139
AFIX 137
H38A  2   -0.014709    0.233896    0.090843    11.00000   -1.50000
H38B  2   -0.078387    0.248976    0.150321    11.00000   -1.50000
H38C  2    0.004888    0.165570    0.162801    11.00000   -1.50000
AFIX   0
C41   1    0.492726    0.625348    0.390075    11.00000    0.01948    0.02123 =
         0.02016    0.00073   -0.00146   -0.00626
AFIX 137
H41A  2    0.452843    0.673707    0.414517    11.00000   -1.50000
H41B  2    0.542652    0.673806    0.380655    11.00000   -1.50000
H41C  2    0.512017    0.556853    0.418724    11.00000   -1.50000
AFIX   0
C44   1    0.265696    0.666717    0.404706    11.00000    0.02154    0.01699 =
         0.02040   -0.00143    0.00228    0.00279
AFIX 137
H44A  2    0.319745    0.711365    0.412624    11.00000   -1.50000
H44B  2    0.228372    0.685788    0.441106    11.00000   -1.50000
H44C  2    0.236579    0.688679    0.359697    11.00000   -1.50000
AFIX   0
C48   1    0.513453    0.515088    0.278487    11.00000    0.01589    0.02605 =
         0.02495    0.00098    0.00618   -0.00346
AFIX 137
H48A  2    0.537077    0.446261    0.304878    11.00000   -1.50000
H48B  2    0.560167    0.570406    0.270425    11.00000   -1.50000
H48C  2    0.485419    0.487992    0.234078    11.00000   -1.50000
AFIX   0
C54   1   -0.009015    0.465960    0.142310    11.00000    0.01408    0.03507 =
         0.02761    0.00315    0.00026    0.00450
AFIX 137
H54A  2    0.025922    0.534977    0.158193    11.00000   -1.50000
H54B  2   -0.066110    0.472110    0.159360    11.00000   -1.50000
H54C  2   -0.015108    0.464112    0.091721    11.00000   -1.50000
AFIX   0
C62   1    0.182762    0.183936    0.174654    11.00000    0.01735    0.01368 =
         0.01582    0.00039    0.00245   -0.00280
C66   1    0.087386    0.318785    0.000211    11.00000    0.02730    0.02367 =
         0.01855    0.00063   -0.00322   -0.00324
AFIX 137
H66A  2    0.084213    0.231781    0.003901    11.00000   -1.50000
H66B  2    0.097614    0.340807   -0.047117    11.00000   -1.50000
H66C  2    0.032986    0.353950    0.011828    11.00000   -1.50000
AFIX   0
C68   1    0.220874    0.148870    0.241684    11.00000    0.01581    0.01173 =
         0.01666   -0.00098    0.00302   -0.00178
C73   1    0.036113    0.345663    0.251195    11.00000    0.01553    0.03355 =
         0.02148    0.00253    0.00582   -0.00128
AFIX 137
H73A  2    0.069323    0.276686    0.269574    11.00000   -1.50000
H73B  2   -0.023289    0.339400    0.263551    11.00000   -1.50000
H73C  2    0.062271    0.419009    0.270836    11.00000   -1.50000
AFIX   0
C76   1    0.036168    0.348697    0.170548    11.00000    0.01210    0.02606 =
         0.02026    0.00249    0.00187   -0.00142
C77   1    0.285554    0.529428    0.405814    11.00000    0.01586    0.01480 =
         0.01398   -0.00051    0.00250   -0.00037
C82   1    0.197916    0.459529    0.401392    11.00000    0.01624    0.02100 =
         0.01686    0.00091    0.00527   -0.00106
AFIX 137
H82A  2    0.162073    0.483920    0.359746    11.00000   -1.50000
H82B  2    0.167727    0.477341    0.442234    11.00000   -1.50000
H82C  2    0.209260    0.373707    0.399435    11.00000   -1.50000
AFIX   0
C94   1    0.488416    0.187079    0.410198    11.00000    0.01915    0.02068 =
         0.01584    0.00223   -0.00108    0.00542
C96   1    0.377484    0.324741    0.351342    11.00000    0.01458    0.01324 =
         0.01366    0.00188    0.00152    0.00208
C99   1    0.163298    0.366590    0.051553    11.00000    0.02002    0.01929 =
         0.01285    0.00072    0.00123   -0.00065
C101  1    0.458266    0.302970    0.390309    11.00000    0.01701    0.01703 =
         0.01623    0.00077   -0.00067    0.00094
AFIX  43
H101  2    0.493708    0.369401    0.403636    11.00000   -1.20000
AFIX   0
C108  1    0.411929    0.691312    0.276069    11.00000    0.02194    0.01930 =
         0.02281    0.00615   -0.00065   -0.00556
AFIX 137
H10A  2    0.385912    0.664346    0.230968    11.00000   -1.50000
H10B  2    0.460162    0.744946    0.269551    11.00000   -1.50000
H10C  2    0.368684    0.733748    0.300280    11.00000   -1.50000
AFIX   0
C114  1    0.445794    0.580033    0.320202    11.00000    0.01350    0.01597 =
         0.01689    0.00292    0.00090   -0.00321
HKLF 4
 
REM  MRMN-C in P2(1)/c
REM R1 =  0.0240 for   13656 Fo > 4sig(Fo)  and  0.0351 for all   16242 data
REM    348 parameters refined using      0 restraints
 
END  
     
WGHT      0.0141      1.4032 

REM Highest difference peak  1.455,  deepest hole -1.272,  1-sigma level  0.134
Q1    1   0.2365  0.4578  0.3359  11.00000  0.05    1.45
Q2    1   0.2774  0.4551  0.2591  11.00000  0.05    1.44
Q3    1   0.2570  0.6413  0.2195  11.00000  0.05    1.05
Q4    1   0.2260  0.4565  0.1827  11.00000  0.05    0.95
Q5    1   0.1942  0.4159  0.2197  11.00000  0.05    0.95
Q6    1   0.2643  0.5182  0.2396  11.00000  0.05    0.93
Q7    1   0.2603  0.4765  0.1794  11.00000  0.05    0.90
Q8    1   0.2466  0.5185  0.1996  11.00000  0.05    0.85
Q9    1   0.2211  0.5381  0.2398  11.00000  0.05    0.81
Q10   1   0.2363  0.3761  0.2392  11.00000  0.05    0.78
Q11   1   0.2487  0.4229  0.2632  11.00000  0.05    0.77
Q12   1   0.3423  0.4568  0.2607  11.00000  0.05    0.75
Q13   1   0.3265  0.1602  0.3419  11.00000  0.05    0.75
Q14   1   0.2813 -0.0745  0.3416  11.00000  0.05    0.74
Q15   1   0.3012  0.4967  0.2805  11.00000  0.05    0.72
Q16   1   0.1615  0.2995  0.2348  11.00000  0.05    0.70
Q17   1   0.1799  0.4555  0.3248  11.00000  0.05    0.66
Q18   1   0.3173  0.4201  0.2320  11.00000  0.05    0.66
Q19   1   0.2851  0.3629  0.2049  11.00000  0.05    0.65
Q20   1   0.2243  0.3767  0.2038  11.00000  0.05    0.64

REM The information below was added by Olex2.
REM
REM R1 = 0.0240 for 13656 Fo > 4sig(Fo) and 0.0351 for all 50534 data
REM n/a parameters refined using n/a restraints
REM Highest difference peak 1.45, deepest hole -1.27
REM Mean Shift 0, Max Shift -0.003.

REM +++ Tabular Listing of Refinement Information +++
REM R1_all = 0.0351
REM R1_gt = 0.0240
REM wR_ref = 0.0486
REM GOOF = 1.076
REM Shift_max = -0.003
REM Shift_mean = 0
REM Reflections_all = 50534
REM Reflections_gt = 13656
REM Parameters = n/a
REM Hole = -1.27
REM Peak = 1.45
REM Flack = n/a

