TITL MRMNAN in C2/c
CELL 0.71073 46.8743 13.1 21.7852 90 105.208 90
ZERR 4 0.0016 0.0004 0.0007 0 0.002 0
LATT 7
SYMM -X,+Y,0.5-Z
 
SFAC C H Cl O P Pt S
UNIT 596 456 40 16 32 8 16
 
L.S. 4 0 0
PLAN  20
TEMP 22.85
fmap 2
MORE -1
BOND $H
ACTA 52
CONF
REM <HKL>/Users/melanie/Desktop/Crystal%20structures%20from%20pc/MRMNAN/MRMNAN
REM .hkl</HKL>
 
WGHT    0.035300   13.113201
FVAR       0.02611   0.45557
PT1   6    0.370987    0.732659    0.337824    11.00000    0.01288    0.01207 =
         0.01109   -0.00008    0.00387   -0.00011
CL3   3    0.491337    0.344814    0.413775    11.00000    0.08451    0.04009 =
         0.04522    0.00914    0.01290    0.00966
CL6   3    0.471109    0.089525    0.262492    11.00000    0.11602    0.10677 =
         0.03899    0.01557    0.01944    0.03423
CL5   3    0.750687    0.503228    0.522110    11.00000    0.03751    0.06663 =
         0.05730   -0.01885    0.01905   -0.01310
CL4   3    0.728485    0.627106    0.610403    11.00000    0.04209    0.04224 =
         0.04751   -0.00507    0.01652   -0.01004
PART 1
CL1   3    0.519876    0.454880    0.323153    21.00000    0.05431    0.10710 =
         0.06402   -0.03767    0.03516   -0.04169
 
PART 0
S2    7    0.351490    0.288431    0.421586    11.00000    0.02872    0.01519 =
         0.02444    0.00274    0.00923   -0.00273
P4    5    0.330094    0.643797    0.278350    11.00000    0.01420    0.01650 =
         0.01186   -0.00075    0.00303   -0.00134
S1    7    0.494724    0.940453    0.411462    11.00000    0.01708    0.02087 =
         0.02707   -0.00178    0.00428   -0.00521
P3    5    0.374483    0.695517    0.443869    11.00000    0.01370    0.01381 =
         0.01138   -0.00037    0.00355   -0.00049
P1    5    0.371670    0.910371    0.331709    11.00000    0.01625    0.01293 =
         0.01383    0.00093    0.00448    0.00110
P2    5    0.409821    0.669932    0.301213    11.00000    0.01516    0.01323 =
         0.01500   -0.00161    0.00636   -0.00081
O1    4    0.436524    0.859398    0.336702    11.00000    0.01847    0.01473 =
         0.01719   -0.00263    0.00421   -0.00061
O2    4    0.343489    0.509487    0.396380    11.00000    0.01756    0.01559 =
         0.01420   -0.00098    0.00384    0.00081
C63   1    0.448910    0.850401    0.536667    11.00000    0.02054    0.04048 =
         0.02504   -0.00612    0.00755   -0.01159
AFIX  43
H63   2    0.467205    0.862873    0.529016    11.00000   -1.20000
AFIX   0
C60   1    0.273908    0.583706    0.292789    11.00000    0.01806    0.05208 =
         0.03107    0.00741    0.00516   -0.00427
AFIX  43
H60   2    0.279514    0.516778    0.287755    11.00000   -1.20000
AFIX   0
C70   1    0.292361    0.723084    0.524616    11.00000    0.02122    0.03568 =
         0.02703   -0.00793    0.01354   -0.00503
AFIX  43
H70   2    0.276212    0.731241    0.541464    11.00000   -1.20000
AFIX   0
C33   1    0.407798    0.847692    0.143807    11.00000    0.05250    0.02489 =
         0.02345    0.00312    0.01379   -0.00379
AFIX  43
H33   2    0.394605    0.892770    0.117997    11.00000   -1.20000
AFIX   0
C4    1    0.457768    1.091258    0.431358    11.00000    0.02801    0.01767 =
         0.01978   -0.00202   -0.00013   -0.00464
AFIX  43
H4    2    0.474739    1.124974    0.453965    11.00000   -1.20000
AFIX   0
C64   1    0.442489    0.890033    0.590349    11.00000    0.02816    0.03357 =
         0.02060   -0.00707    0.00340   -0.01313
AFIX  43
H64   2    0.456432    0.929209    0.618941    11.00000   -1.20000
AFIX   0
C51   1    0.289430    0.714329    0.089387    11.00000    0.03981    0.04332 =
         0.01748    0.00150   -0.00153    0.01032
AFIX  43
H51   2    0.271144    0.737423    0.065353    11.00000   -1.20000
AFIX   0
C59   1    0.245994    0.604054    0.301988    11.00000    0.01754    0.09209 =
         0.04883    0.02039    0.01010   -0.00312
AFIX  43
H59   2    0.233381    0.550270    0.304389    11.00000   -1.20000
AFIX   0
C16   1    0.309365    1.064133    0.439244    11.00000    0.04996    0.02473 =
         0.05901   -0.00975    0.04057   -0.00347
AFIX  43
H16   2    0.296837    1.092932    0.461257    11.00000   -1.20000
AFIX   0
C50   1    0.293647    0.694787    0.153895    11.00000    0.02598    0.03684 =
         0.01802   -0.00048    0.00232    0.00608
AFIX  43
H50   2    0.278087    0.704169    0.172440    11.00000   -1.20000
AFIX   0
 
C73   1    0.492373    0.357087    0.334397    11.00000    0.05991    0.09577 =
         0.04777   -0.02708    0.01780   -0.01615
PART 1
AFIX  23
H73A  2    0.472874    0.376061    0.308790    21.00000   -1.20000
H73B  2    0.497339    0.291513    0.319274    21.00000   -1.20000
AFIX  23
PART 0
PART 2
H73C  2    0.488116    0.291701    0.313061   -21.00000   -1.20000
H73D  2    0.477430    0.405432    0.312744   -21.00000   -1.20000
AFIX   0
 
PART 0
C24   1    0.335705    0.925947    0.208121    11.00000    0.02729    0.01777 =
         0.02168    0.00172    0.00275    0.00038
AFIX  43
H24   2    0.328605    0.863016    0.217266    11.00000   -1.20000
AFIX   0
C53   1    0.339075    0.664140    0.096512    11.00000    0.03587    0.04190 =
         0.01864   -0.00254    0.01097   -0.00724
AFIX  43
H53   2    0.354339    0.652620    0.077380    11.00000   -1.20000
AFIX   0
C48   1    0.387081    0.566714    0.471664    11.00000    0.01751    0.01582 =
         0.01462    0.00049    0.00592    0.00086
C20   1    0.369662    1.065015    0.237249    11.00000    0.02562    0.02032 =
         0.01904    0.00269    0.00850   -0.00061
AFIX  43
H20   2    0.385410    1.096517    0.265998    11.00000   -1.20000
AFIX   0
 
C75   1    0.500000    0.013491    0.250000    10.50000    0.10638    0.05674 =
         0.02441    0.00000    0.01297    0.00000
AFIX  23
H75A  2    0.492490   -0.030013    0.213280    10.50000   -1.20000
H75B  2    0.507510   -0.030015    0.286719    10.50000   -1.20000
AFIX   0
 
C39   1    0.329754    0.335667    0.232208    11.00000    0.03713    0.02204 =
         0.02264   -0.00873    0.00908   -0.01017
AFIX  43
H39   2    0.326577    0.296901    0.195265    11.00000   -1.20000
AFIX   0
C17   1    0.300778    1.058720    0.373694    11.00000    0.03167    0.02933 =
         0.05935   -0.00597    0.02312    0.00460
AFIX  43
H17   2    0.282429    1.084030    0.351534    11.00000   -1.20000
AFIX   0
C23   1    0.323061    0.972264    0.149819    11.00000    0.03168    0.02858 =
         0.02098    0.00090   -0.00184    0.00410
AFIX  43
H23   2    0.307437    0.940862    0.120668    11.00000   -1.20000
AFIX   0
C66   1    0.394270    0.812037    0.558903    11.00000    0.02191    0.02784 =
         0.02018   -0.00876    0.00846   -0.00643
AFIX  43
H66   2    0.376032    0.799399    0.566794    11.00000   -1.20000
AFIX   0
C52   1    0.312066    0.699842    0.060659    11.00000    0.04784    0.03579 =
         0.01338    0.00099    0.00527   -0.00208
AFIX  43
H52   2    0.309199    0.713932    0.017626    11.00000   -1.20000
AFIX   0
C65   1    0.415152    0.871019    0.601284    11.00000    0.03190    0.03529 =
         0.02278   -0.01384    0.01187   -0.01052
AFIX  43
H65   2    0.410742    0.897907    0.637230    11.00000   -1.20000
AFIX   0
C9    1    0.502745    0.733578    0.436408    11.00000    0.01441    0.02551 =
         0.02054   -0.00096    0.00368    0.00033
AFIX  43
H9    2    0.521223    0.749459    0.462937    11.00000   -1.20000
AFIX   0
C8    1    0.483733    0.811388    0.405777    11.00000    0.01767    0.01747 =
         0.01874   -0.00263    0.00735   -0.00266
C71   1    0.314503    0.653852    0.551648    11.00000    0.02699    0.03291 =
         0.01811   -0.00018    0.01074   -0.00549
AFIX  43
H71   2    0.312932    0.614464    0.586128    11.00000   -1.20000
AFIX   0
C47   1    0.412463    0.543200    0.519972    11.00000    0.02077    0.02225 =
         0.01820    0.00062    0.00272    0.00159
AFIX  43
H47   2    0.424805    0.595516    0.540203    11.00000   -1.20000
AFIX   0
C32   1    0.399957    0.797328    0.193595    11.00000    0.02944    0.01925 =
         0.02095    0.00004    0.00962   -0.00171
AFIX  43
H32   2    0.381557    0.809308    0.200840    11.00000   -1.20000
AFIX   0
C15   1    0.336606    1.026649    0.471965    11.00000    0.06120    0.02074 =
         0.03453   -0.00364    0.03135   -0.00313
AFIX  43
H15   2    0.342536    1.031127    0.516099    11.00000   -1.20000
AFIX   0
C38   1    0.327164    0.441209    0.227894    11.00000    0.03104    0.02193 =
         0.01622   -0.00227    0.00442   -0.00731
AFIX  43
H38   2    0.321932    0.471741    0.187963    11.00000   -1.20000
AFIX   0
C26   1    0.411430    0.499023    0.220528    11.00000    0.02454    0.01905 =
         0.02560   -0.00554    0.00912   -0.00323
AFIX  43
H26   2    0.411935    0.545851    0.188746    11.00000   -1.20000
AFIX   0
C22   1    0.333762    1.064970    0.135327    11.00000    0.03792    0.03020 =
         0.01695    0.00566    0.00541    0.01120
AFIX  43
H22   2    0.325309    1.096350    0.096522    11.00000   -1.20000
AFIX   0
C46   1    0.419446    0.442158    0.538099    11.00000    0.02244    0.02660 =
         0.02101    0.00410    0.00028    0.00577
AFIX  43
H46   2    0.436400    0.427847    0.570231    11.00000   -1.20000
AFIX   0
C18   1    0.319464    1.015531    0.340595    11.00000    0.02456    0.02182 =
         0.03640   -0.00216    0.01321    0.00256
AFIX  43
H18   2    0.313529    1.012993    0.296401    11.00000   -1.20000
AFIX   0
C13   1    0.346953    0.976019    0.372746    11.00000    0.02592    0.01283 =
         0.02468    0.00125    0.01290    0.00142
C56   1    0.284044    0.763541    0.296865    11.00000    0.02579    0.04342 =
         0.02657   -0.00210    0.00487    0.01185
AFIX  43
H56   2    0.296696    0.817787    0.295745    11.00000   -1.20000
AFIX   0
C69   1    0.294476    0.780223    0.472137    11.00000    0.01891    0.02819 =
         0.03249   -0.00035    0.01006    0.00199
AFIX  43
H69   2    0.279673    0.826466    0.453560    11.00000   -1.20000
AFIX   0
C25   1    0.410714    0.533865    0.280636    11.00000    0.01555    0.01622 =
         0.02252   -0.00323    0.00817   -0.00087
C14   1    0.355273    0.982169    0.439341    11.00000    0.04328    0.01721 =
         0.02400    0.00267    0.01660    0.00270
AFIX  43
H14   2    0.373466    0.956236    0.461952    11.00000   -1.20000
AFIX   0
C7    1    0.456177    0.785556    0.367794    11.00000    0.01613    0.01590 =
         0.01745    0.00032    0.00771    0.00068
C40   1    0.337007    0.287440    0.290814    11.00000    0.02896    0.01685 =
         0.02804   -0.00511    0.01047   -0.00651
AFIX  43
H40   2    0.338741    0.216753    0.293438    11.00000   -1.20000
AFIX   0
C55   1    0.293321    0.663849    0.291174    11.00000    0.01595    0.03664 =
         0.01411    0.00198    0.00252    0.00193
C57   1    0.255815    0.782373    0.304246    11.00000    0.03680    0.07797 =
         0.03945    0.00301    0.01099    0.03247
AFIX  43
H57   2    0.249532    0.849148    0.307019    11.00000   -1.20000
AFIX   0
C34   1    0.435198    0.830435    0.132951    11.00000    0.05653    0.03665 =
         0.02394   -0.00215    0.02154   -0.01949
AFIX  43
H34   2    0.440460    0.864350    0.100045    11.00000   -1.20000
AFIX   0
C62   1    0.427888    0.791685    0.494022    11.00000    0.02236    0.03021 =
         0.01850   -0.00659    0.00772   -0.00670
AFIX  43
H62   2    0.432336    0.765571    0.457924    11.00000   -1.20000
AFIX   0
C5    1    0.459770    0.996768    0.403990    11.00000    0.02007    0.01689 =
         0.01762   -0.00020    0.00264   -0.00209
C21   1    0.357082    1.110804    0.178776    11.00000    0.03721    0.02233 =
         0.02170    0.00671    0.01325    0.00372
AFIX  43
H21   2    0.364439    1.172826    0.168854    11.00000   -1.20000
AFIX   0
 
C74   1    0.721195    0.523708    0.556504    11.00000    0.02841    0.04009 =
         0.03682    0.00043    0.00635   -0.00754
AFIX  23
H74A  2    0.717916    0.462431    0.578702    11.00000   -1.20000
H74B  2    0.703332    0.537581    0.523240    11.00000   -1.20000
AFIX   0
 
C12   1    0.446784    0.684291    0.356572    11.00000    0.01580    0.01662 =
         0.01835   -0.00292    0.00828   -0.00098
C27   1    0.411395    0.394793    0.207595    11.00000    0.02973    0.02504 =
         0.03907   -0.01617    0.01417   -0.00501
AFIX  43
H27   2    0.411478    0.372390    0.167134    11.00000   -1.20000
AFIX   0
C54   1    0.343420    0.645471    0.161110    11.00000    0.02348    0.03223 =
         0.01743   -0.00142    0.00553   -0.00322
AFIX  43
H54   2    0.361715    0.621928    0.184817    11.00000   -1.20000
AFIX   0
C36   1    0.446890    0.712048    0.220242    11.00000    0.02531    0.03015 =
         0.02187   -0.00378    0.01209   -0.00396
AFIX  43
H36   2    0.460017    0.666043    0.245379    11.00000   -1.20000
AFIX   0
C19   1    0.358841    0.972271    0.253072    11.00000    0.02054    0.01578 =
         0.01499    0.00162    0.00646    0.00303
C1    1    0.405881    0.985017    0.366839    11.00000    0.02024    0.01450 =
         0.01455    0.00124    0.00361   -0.00048
C68   1    0.318853    0.767872    0.447552    11.00000    0.01690    0.02105 =
         0.02208    0.00097    0.00672   -0.00146
AFIX  43
H68   2    0.320023    0.805640    0.412147    11.00000   -1.20000
AFIX   0
C41   1    0.341658    0.346226    0.345667    11.00000    0.02140    0.01643 =
         0.02074    0.00037    0.00751   -0.00381
C72   1    0.338980    0.642976    0.527587    11.00000    0.02267    0.02635 =
         0.01513    0.00047    0.00626   -0.00097
AFIX  43
H72   2    0.353848    0.597269    0.546654    11.00000   -1.20000
AFIX   0
C67   1    0.341542    0.700005    0.474961    11.00000    0.01509    0.01773 =
         0.01325   -0.00242    0.00417   -0.00353
C37   1    0.332254    0.502814    0.282349    11.00000    0.01715    0.01701 =
         0.01853   -0.00213    0.00479   -0.00416
C49   1    0.320972    0.661263    0.191058    11.00000    0.02205    0.01813 =
         0.01353   -0.00156    0.00329   -0.00336
C43   1    0.369256    0.485700    0.442873    11.00000    0.01569    0.01757 =
         0.01452    0.00053    0.00553    0.00137
C3    1    0.430180    1.134717    0.424581    11.00000    0.02991    0.01397 =
         0.02439   -0.00379    0.00300   -0.00086
AFIX  43
H3    2    0.428703    1.199591    0.440812    11.00000   -1.20000
AFIX   0
C45   1    0.401393    0.363010    0.508739    11.00000    0.02932    0.01969 =
         0.02373    0.00626    0.00863    0.00740
AFIX  43
H45   2    0.406123    0.295853    0.521162    11.00000   -1.20000
AFIX   0
C11   1    0.466098    0.608373    0.386992    11.00000    0.02013    0.01740 =
         0.02684   -0.00047    0.00696    0.00106
AFIX  43
H11   2    0.460477    0.540285    0.380683    11.00000   -1.20000
AFIX   0
C35   1    0.454743    0.762885    0.170938    11.00000    0.03367    0.04585 =
         0.02878   -0.00616    0.02140   -0.01411
AFIX  43
H35   2    0.473144    0.751363    0.163583    11.00000   -1.20000
AFIX   0
C2    1    0.404750    1.082365    0.393818    11.00000    0.02455    0.01675 =
         0.02078   -0.00080    0.00259    0.00234
AFIX  43
H2    2    0.386440    1.112222    0.390880    11.00000   -1.20000
AFIX   0
C30   1    0.409345    0.461753    0.327314    11.00000    0.02111    0.01914 =
         0.02690    0.00031    0.00903   -0.00191
AFIX  43
H30   2    0.407967    0.483373    0.367098    11.00000   -1.20000
AFIX   0
C44   1    0.376046    0.384774    0.460364    11.00000    0.02267    0.01609 =
         0.01879    0.00246    0.00832    0.00077
C28   1    0.411235    0.324521    0.255154    11.00000    0.02442    0.01694 =
         0.05519   -0.00830    0.01323   -0.00488
AFIX  43
H28   2    0.411935    0.254991    0.247053    11.00000   -1.20000
AFIX   0
C42   1    0.339251    0.452083    0.340969    11.00000    0.01585    0.01744 =
         0.01628   -0.00209    0.00618   -0.00388
C6    1    0.434128    0.946836    0.370364    11.00000    0.02153    0.01264 =
         0.01453   -0.00015    0.00560   -0.00206
C61   1    0.400557    0.771532    0.504365    11.00000    0.02073    0.01385 =
         0.01325    0.00021    0.00454   -0.00052
C29   1    0.410041    0.357848    0.314307    11.00000    0.02511    0.01799 =
         0.04262    0.00402    0.01048   -0.00156
AFIX  43
H29   2    0.409695    0.310518    0.345921    11.00000   -1.20000
AFIX   0
C31   1    0.419411    0.729651    0.232249    11.00000    0.02087    0.01708 =
         0.01533   -0.00369    0.00761   -0.00511
C58   1    0.237164    0.701737    0.307443    11.00000    0.01988    0.11473 =
         0.04468    0.02181    0.01305    0.02279
AFIX  43
H58   2    0.218542    0.714423    0.313337    11.00000   -1.20000
AFIX   0
C10   1    0.493699    0.632596    0.426721    11.00000    0.02040    0.02219 =
         0.02750    0.00048    0.00462    0.00383
AFIX  43
H10   2    0.506199    0.580674    0.446966    11.00000   -1.20000
AFIX   0
 
PART 2
CL2   3    0.525095    0.396759    0.331177   -21.00000    0.03878    0.22857 =
         0.04382   -0.00680    0.00916   -0.03337
HKLF 4
 
REM  MRMNAN in C2/c
REM R1 =  0.0219 for   16685 Fo > 4sig(Fo)  and  0.0338 for all   19386 data
REM    808 parameters refined using      0 restraints
 
END  
     
WGHT      0.0353     13.1286 

REM Highest difference peak  1.084,  deepest hole -1.067,  1-sigma level  0.256
Q1    1   0.7523  0.4619  0.5442  11.00000  0.05    1.08
Q2    1   0.3713  0.7943  0.3393  11.00000  0.05    1.07
Q3    1   0.4650  0.0334  0.2513  11.00000  0.05    1.01
Q4    1   0.5058  0.3646  0.3979  11.00000  0.05    0.88
Q5    1   0.7566  0.5256  0.5185  11.00000  0.05    0.85
Q6    1   0.7393  0.6079  0.6370  11.00000  0.05    0.82
Q7    1   0.7498  0.5462  0.5286  11.00000  0.05    0.79
Q8    1   0.7362  0.4588  0.5036  11.00000  0.05    0.77
Q9    1   0.7467  0.4978  0.4802  11.00000  0.05    0.76
Q10   1   0.7374  0.5765  0.4995  11.00000  0.05    0.76
Q11   1   0.2907  0.7296  0.4892  11.00000  0.05    0.75
Q12   1   0.7336  0.5205  0.4936  11.00000  0.05    0.73
Q13   1   0.7504  0.5695  0.4780  11.00000  0.05    0.72
Q14   1   0.2581  0.7087  0.5173  11.00000  0.05    0.71
Q15   1   0.4740  0.1260  0.2428  11.00000  0.05    0.71
Q16   1   0.7360  0.5209  0.5355  11.00000  0.05    0.71
Q17   1   0.2568  0.7552  0.4833  11.00000  0.05    0.70
Q18   1   0.7684  0.5259  0.5426  11.00000  0.05    0.69
Q19   1   0.3057  0.7668  0.4611  11.00000  0.05    0.69
Q20   1   0.2595  0.6637  0.5437  11.00000  0.05    0.69

REM The information below was added by Olex2.
REM
REM R1 = 0.0219 for 16685 Fo > 4sig(Fo) and 0.0338 for all 175511 data
REM n/a parameters refined using n/a restraints
REM Highest difference peak 1.08, deepest hole -1.07
REM Mean Shift 0, Max Shift 0.011.

REM +++ Tabular Listing of Refinement Information +++
REM R1_all = 0.0338
REM R1_gt = 0.0219
REM wR_ref = 0.0716
REM GOOF = 1.232
REM Shift_max = 0.011
REM Shift_mean = 0
REM Reflections_all = 175511
REM Reflections_gt = 16685
REM Parameters = n/a
REM Hole = -1.07
REM Peak = 1.08
REM Flack = n/a

