data_mrmnan.ins
_audit_creation_date              2014-05-21
_audit_creation_method
;
Olex2 1.2
(compiled 2014.03.20 svn.r2918 for OlexSys, GUI svn.r4816)
;
_shelxl_version_number            2013-4
_publ_contact_author_address      ?
_publ_contact_author_email        ?
_publ_contact_author_name         ''
_publ_contact_author_phone        ?
_publ_section_references
;
Dolomanov, O.V., Bourhis, L.J., Gildea, R.J, Howard, J.A.K. & Puschmann, H.
 (2009), J. Appl. Cryst. 42, 339-341.

Palatinus, L. & Chapuis, G. (2007). J. Appl. Cryst., 40, 786-790;
Palatinus, L. & van der Lee, A. (2008). J. Appl. Cryst. 41, 975-984;
Palatinus, L., Prathapa, S. J. & van Smaalen, S. (2012). J. Appl. Cryst. 45,
 575-580.

Sheldrick, G.M. (2008). Acta Cryst. A64, 112-122.
;
_chemical_name_common             ?
_chemical_name_systematic
;
 ?
;
_chemical_formula_moiety          '2(C72 H52 O2 P4 Pt S2), 5(C H2 Cl2)'
_chemical_formula_sum             'C149 H114 Cl10 O4 P8 Pt2 S4'
_chemical_formula_weight          3089.07
_chemical_melting_point           ?
loop_
  _atom_type_symbol
  _atom_type_description
  _atom_type_scat_dispersion_real
  _atom_type_scat_dispersion_imag
  _atom_type_scat_source
 'C' 'C' 0.0033 0.0016 'International Tables Vol C Tables 4.2.6.8 and 6.1.1.4'
 'H' 'H' 0.0000 0.0000 'International Tables Vol C Tables 4.2.6.8 and 6.1.1.4'
 'Cl' 'Cl' 0.1484 0.1585 'International Tables Vol C Tables 4.2.6.8 and 6.1.1.4'
 'O' 'O' 0.0106 0.0060 'International Tables Vol C Tables 4.2.6.8 and 6.1.1.4'
 'P' 'P' 0.1023 0.0942 'International Tables Vol C Tables 4.2.6.8 and 6.1.1.4'
 'Pt' 'Pt' -1.7033 8.3905
 'International Tables Vol C Tables 4.2.6.8 and 6.1.1.4'
 'S' 'S' 0.1246 0.1234 'International Tables Vol C Tables 4.2.6.8 and 6.1.1.4'

_shelx_space_group_comment
;
The symmetry employed for this shelxl refinement is uniquely defined
by the following loop, which should always be used as a source of
symmetry information in preference to the above space-group names.
They are only intended as comments.
;
_space_group_crystal_system       'monoclinic'
_space_group_IT_number            15
_space_group_name_H-M_alt         'C 1 2/c 1'
_space_group_name_Hall            '-C 2yc'
loop_
  _space_group_symop_operation_xyz
 'x, y, z'
 '-x, y, -z+1/2'
 'x+1/2, y+1/2, z'
 '-x+1/2, y+1/2, -z+1/2'
 '-x, -y, -z'
 'x, -y, z-1/2'
 '-x+1/2, -y+1/2, -z'
 'x+1/2, -y+1/2, z-1/2'

_cell_length_a                    46.8743(16)
_cell_length_b                    13.1000(4)
_cell_length_c                    21.7852(7)
_cell_angle_alpha                 90
_cell_angle_beta                  105.208(2)
_cell_angle_gamma                 90
_cell_volume                      12908.8(7)
_cell_formula_units_Z             4
_cell_measurement_reflns_used     9402
_cell_measurement_temperature     296(2)
_cell_measurement_theta_max       30.440
_cell_measurement_theta_min       2.273
_shelx_estimated_absorpt_T_max    ?
_shelx_estimated_absorpt_T_min    ?
_exptl_absorpt_coefficient_mu     2.594
_exptl_absorpt_correction_T_max   0.7460
_exptl_absorpt_correction_T_min   0.5160
_exptl_absorpt_correction_type    multi-scan
_exptl_absorpt_process_details
;
SADABS-2008/1 (Bruker,2008) was used for absorption correction.
wR2(int) was 0.0600 before and 0.0461 after correction.
The Ratio of minimum to maximum transmission is 0.6917.
The \l/2 correction factor is 0.0015.
;
_exptl_crystal_colour             yellow
_exptl_crystal_colour_primary     yellow
_exptl_crystal_density_diffrn     1.589
_exptl_crystal_density_meas       .
_exptl_crystal_density_method     ?
_exptl_crystal_description        'block'
_exptl_crystal_F_000              6200
_exptl_crystal_size_max           0.61
_exptl_crystal_size_mid           0.18
_exptl_crystal_size_min           0.15
_exptl_special_details
;
 ?
;
_exptl_transmission_factor_max    ?
_exptl_transmission_factor_min    ?
_diffrn_reflns_av_R_equivalents   0.0370
_diffrn_reflns_av_unetI/netI      0.0207
_diffrn_reflns_Laue_measured_fraction_full 0.999
_diffrn_reflns_Laue_measured_fraction_max 0.987
_diffrn_reflns_limit_h_max        66
_diffrn_reflns_limit_h_min        -66
_diffrn_reflns_limit_k_max        17
_diffrn_reflns_limit_k_min        -18
_diffrn_reflns_limit_l_max        30
_diffrn_reflns_limit_l_min        -30
_diffrn_reflns_number             172570
_diffrn_reflns_point_group_measured_fraction_full 0.999
_diffrn_reflns_point_group_measured_fraction_max 0.987
_diffrn_reflns_theta_full         26.000
_diffrn_reflns_theta_max          30.458
_diffrn_reflns_theta_min          1.801
_diffrn_ambient_temperature       296.0
_diffrn_detector_area_resol_mean  ?
_diffrn_measured_fraction_theta_full 0.999
_diffrn_measured_fraction_theta_max 0.987
_diffrn_measurement_device_type   'Bruker APEX-II CCD'
_diffrn_measurement_method        '\f and \w scans'
_diffrn_radiation_monochromator   'graphite'
_diffrn_radiation_type            MoK\a
_diffrn_radiation_wavelength      0.71073
_diffrn_source                    ?
_diffrn_standards_number          0
_reflns_Friedel_coverage          0.000
_reflns_Friedel_fraction_full     .
_reflns_Friedel_fraction_max      .
_reflns_number_gt                 16685
_reflns_number_total              19386
_reflns_special_details
;
 Reflections were merged by SHELXL according to the crystal
 class for the calculation of statistics and refinement.
 
 _reflns_Friedel_fraction is defined as the number of unique
 Friedel pairs measured divided by the number that would be
 possible theoretically, ignoring centric projections and
 systematic absences.
;
_reflns_threshold_expression      'I > 2\s(I)'
_computing_cell_refinement        ?
_computing_data_collection        ?
_computing_data_reduction         'SAINT v7.53A (Bruker, 2008)'
_computing_molecular_graphics     'Olex2 (Dolomanov et al., 2009)'
_computing_publication_material   'Olex2 (Dolomanov et al., 2009)'
_computing_structure_refinement   'ShelXL (Sheldrick, 2008)'
_computing_structure_solution
;
Superflip (Palatinus & Chapuis, 2007;Palatinus & van der Lee, 2008;
Palatinus et al., 2012)
;
_refine_diff_density_max          1.084
_refine_diff_density_min          -1.067
_refine_diff_density_rms          0.256
_refine_ls_extinction_coef        .
_refine_ls_extinction_method      none
_refine_ls_goodness_of_fit_ref    1.232
_refine_ls_hydrogen_treatment     constr
_refine_ls_matrix_type            full
_refine_ls_number_parameters      808
_refine_ls_number_reflns          19386
_refine_ls_number_restraints      0
_refine_ls_R_factor_all           0.0338
_refine_ls_R_factor_gt            0.0219
_refine_ls_restrained_S_all       1.232
_refine_ls_shift/su_max           0.011
_refine_ls_shift/su_mean          0.000
_refine_ls_structure_factor_coef  Fsqd
_refine_ls_weighting_details
'w=1/[\s^2^(Fo^2^)+(0.0353P)^2^+13.1132P] where P=(Fo^2^+2Fc^2^)/3'
_refine_ls_weighting_scheme       calc
_refine_ls_wR_factor_gt           0.0565
_refine_ls_wR_factor_ref          0.0716
_refine_special_details
;
 ?
;
_olex2_refinement_description
;
1. Fixed Uiso
 At 1.2 times of:
  All C(H) groups, All C(H,H) groups, All C(H,H,H,H) groups
2. Others
 Sof(H73C)=Sof(H73D)=Sof(Cl2)=1-FVAR(1)
 Sof(Cl1)=Sof(H73A)=Sof(H73B)=FVAR(1)
 Fixed Sof: H75A(0.5) H75B(0.5)
3.a Secondary CH2 refined with riding coordinates:
 C73(H73A,H73B), C73(H73C,H73D), C75(H75A,H75B), C74(H74A,H74B)
3.b Aromatic/amide H refined with riding coordinates:
 C63(H63), C60(H60), C70(H70), C33(H33), C4(H4), C64(H64), C51(H51), C59(H59),
 C16(H16), C50(H50), C24(H24), C53(H53), C20(H20), C39(H39), C17(H17), C23(H23),
  C66(H66), C52(H52), C65(H65), C9(H9), C71(H71), C47(H47), C32(H32), C15(H15),
 C38(H38), C26(H26), C22(H22), C46(H46), C18(H18), C56(H56), C69(H69), C14(H14),
  C40(H40), C57(H57), C34(H34), C62(H62), C21(H21), C27(H27), C54(H54),
 C36(H36), C68(H68), C72(H72), C3(H3), C45(H45), C11(H11), C35(H35), C2(H2),
 C30(H30), C28(H28), C29(H29), C58(H58), C10(H10)
;
_atom_sites_solution_hydrogens    geom
_atom_sites_solution_primary      iterative
_atom_sites_solution_secondary    ?
loop_
  _atom_site_label
  _atom_site_type_symbol
  _atom_site_fract_x
  _atom_site_fract_y
  _atom_site_fract_z
  _atom_site_U_iso_or_equiv
  _atom_site_adp_type
  _atom_site_occupancy
  _atom_site_site_symmetry_order
  _atom_site_calc_flag
  _atom_site_refinement_flags_posn
  _atom_site_refinement_flags_adp
  _atom_site_refinement_flags_occupancy
  _atom_site_disorder_assembly
  _atom_site_disorder_group
 Pt1 Pt 0.37099(2) 0.73266(2) 0.33782(2) 0.01188(3) Uani 1 1 d . . . . .
 Cl3 Cl 0.49134(2) 0.34481(7) 0.41378(4) 0.0574(2) Uani 1 1 d . . . . .
 Cl6 Cl 0.47111(3) 0.08953(11) 0.26249(5) 0.0874(4) Uani 1 1 d . . . . .
 Cl5 Cl 0.75069(2) 0.50323(7) 0.52211(5) 0.0526(2) Uani 1 1 d . . . . .
 Cl4 Cl 0.72849(2) 0.62711(6) 0.61040(4) 0.04305(16) Uani 1 1 d . . . . .
 Cl1 Cl 0.5199(2) 0.4549(8) 0.3232(5) 0.071(2) Uani 0.46(2) 1 d . . . A 1
 S2 S 0.35149(2) 0.28843(4) 0.42159(3) 0.02236(11) Uani 1 1 d . . . . .
 P4 P 0.33009(2) 0.64380(4) 0.27835(2) 0.01426(9) Uani 1 1 d . . . . .
 S1 S 0.49472(2) 0.94045(4) 0.41146(3) 0.02195(11) Uani 1 1 d . . . . .
 P3 P 0.37448(2) 0.69552(4) 0.44387(2) 0.01291(9) Uani 1 1 d . . . . .
 P1 P 0.37167(2) 0.91037(4) 0.33171(2) 0.01424(9) Uani 1 1 d . . . . .
 P2 P 0.40982(2) 0.66993(4) 0.30121(3) 0.01401(9) Uani 1 1 d . . . . .
 O1 O 0.43652(3) 0.85940(11) 0.33670(7) 0.0169(3) Uani 1 1 d . . . . .
 O2 O 0.34349(3) 0.50949(11) 0.39638(7) 0.0158(3) Uani 1 1 d . . . . .
 C63 C 0.44891(5) 0.8504(2) 0.53667(12) 0.0284(5) Uani 1 1 d . . . . .
 H63 H 0.4672 0.8629 0.5290 0.034 Uiso 1 1 calc R . . . .
 C60 C 0.27391(6) 0.5837(2) 0.29279(13) 0.0340(6) Uani 1 1 d . . . . .
 H60 H 0.2795 0.5168 0.2878 0.041 Uiso 1 1 calc R . . . .
 C70 C 0.29236(6) 0.72308(19) 0.52462(12) 0.0266(5) Uani 1 1 d . . . . .
 H70 H 0.2762 0.7312 0.5415 0.032 Uiso 1 1 calc R . . . .
 C33 C 0.40780(7) 0.84769(19) 0.14381(12) 0.0329(6) Uani 1 1 d . . . . .
 H33 H 0.3946 0.8928 0.1180 0.039 Uiso 1 1 calc R . . . .
 C4 C 0.45777(5) 1.09126(16) 0.43136(11) 0.0230(4) Uani 1 1 d . . . . .
 H4 H 0.4747 1.1250 0.4540 0.028 Uiso 1 1 calc R . . . .
 C64 C 0.44249(6) 0.89003(19) 0.59035(12) 0.0280(5) Uani 1 1 d . . . . .
 H64 H 0.4564 0.9292 0.6189 0.034 Uiso 1 1 calc R . . . .
 C51 C 0.28943(7) 0.7143(2) 0.08939(12) 0.0352(6) Uani 1 1 d . . . . .
 H51 H 0.2711 0.7374 0.0654 0.042 Uiso 1 1 calc R . . . .
 C59 C 0.24599(6) 0.6041(3) 0.30199(17) 0.0526(9) Uani 1 1 d . . . . .
 H59 H 0.2334 0.5503 0.3044 0.063 Uiso 1 1 calc R . . . .
 C16 C 0.30937(7) 1.0641(2) 0.43924(16) 0.0396(7) Uani 1 1 d . . . . .
 H16 H 0.2968 1.0929 0.4613 0.048 Uiso 1 1 calc R . . . .
 C50 C 0.29365(6) 0.6948(2) 0.15389(11) 0.0276(5) Uani 1 1 d . . . . .
 H50 H 0.2781 0.7042 0.1724 0.033 Uiso 1 1 calc R . . . .
 C73 C 0.49237(9) 0.3571(4) 0.33440(19) 0.0671(12) Uani 1 1 d . . . . .
 H73A H 0.4729 0.3761 0.3088 0.081 Uiso 0.46(2) 1 calc R . . A 1
 H73B H 0.4973 0.2915 0.3193 0.081 Uiso 0.46(2) 1 calc R . . A 1
 H73C H 0.4881 0.2917 0.3131 0.081 Uiso 0.54(2) 1 calc R . . A 2
 H73D H 0.4774 0.4054 0.3127 0.081 Uiso 0.54(2) 1 calc R . . A 2
 C24 C 0.33571(5) 0.92595(17) 0.20812(11) 0.0229(4) Uani 1 1 d . . . . .
 H24 H 0.3286 0.8630 0.2173 0.028 Uiso 1 1 calc R . . . .
 C53 C 0.33908(6) 0.6641(2) 0.09651(12) 0.0314(5) Uani 1 1 d . . . . .
 H53 H 0.3543 0.6526 0.0774 0.038 Uiso 1 1 calc R . . . .
 C48 C 0.38708(5) 0.56671(15) 0.47166(10) 0.0157(4) Uani 1 1 d . . . . .
 C20 C 0.36966(5) 1.06502(16) 0.23725(11) 0.0212(4) Uani 1 1 d . . . . .
 H20 H 0.3854 1.0965 0.2660 0.025 Uiso 1 1 calc R . . . .
 C75 C 0.5000 0.0135(4) 0.2500 0.0633(16) Uani 1 2 d S T P . .
 H75A H 0.4925 -0.0300 0.2133 0.076 Uiso 0.5 1 calc R . . . .
 H75B H 0.5075 -0.0300 0.2867 0.076 Uiso 0.5 1 calc R . . . .
 C39 C 0.32975(6) 0.33567(18) 0.23221(12) 0.0270(5) Uani 1 1 d . . . . .
 H39 H 0.3266 0.2969 0.1953 0.032 Uiso 1 1 calc R . . . .
 C17 C 0.30078(7) 1.0587(2) 0.37369(16) 0.0380(6) Uani 1 1 d . . . . .
 H17 H 0.2824 1.0840 0.3515 0.046 Uiso 1 1 calc R . . . .
 C23 C 0.32306(6) 0.97226(19) 0.14982(12) 0.0287(5) Uani 1 1 d . . . . .
 H23 H 0.3074 0.9409 0.1207 0.034 Uiso 1 1 calc R . . . .
 C66 C 0.39427(5) 0.81204(17) 0.55890(11) 0.0228(4) Uani 1 1 d . . . . .
 H66 H 0.3760 0.7994 0.5668 0.027 Uiso 1 1 calc R . . . .
 C52 C 0.31207(7) 0.6998(2) 0.06066(12) 0.0329(6) Uani 1 1 d . . . . .
 H52 H 0.3092 0.7139 0.0176 0.039 Uiso 1 1 calc R . . . .
 C65 C 0.41515(6) 0.8710(2) 0.60128(12) 0.0291(5) Uani 1 1 d . . . . .
 H65 H 0.4107 0.8979 0.6372 0.035 Uiso 1 1 calc R . . . .
 C9 C 0.50275(5) 0.73358(16) 0.43641(11) 0.0203(4) Uani 1 1 d . . . . .
 H9 H 0.5212 0.7495 0.4629 0.024 Uiso 1 1 calc R . . . .
 C8 C 0.48373(5) 0.81139(15) 0.40578(10) 0.0175(4) Uani 1 1 d . . . . .
 C71 C 0.31450(5) 0.65385(19) 0.55165(11) 0.0251(5) Uani 1 1 d . . . . .
 H71 H 0.3129 0.6145 0.5861 0.030 Uiso 1 1 calc R . . . .
 C47 C 0.41246(5) 0.54320(17) 0.51997(11) 0.0209(4) Uani 1 1 d . . . . .
 H47 H 0.4248 0.5955 0.5402 0.025 Uiso 1 1 calc R . . . .
 C32 C 0.39996(5) 0.79733(17) 0.19359(11) 0.0226(4) Uani 1 1 d . . . . .
 H32 H 0.3816 0.8093 0.2008 0.027 Uiso 1 1 calc R . . . .
 C15 C 0.33661(7) 1.02665(19) 0.47197(14) 0.0353(6) Uani 1 1 d . . . . .
 H15 H 0.3425 1.0311 0.5161 0.042 Uiso 1 1 calc R . . . .
 C38 C 0.32716(5) 0.44121(17) 0.22789(11) 0.0234(4) Uani 1 1 d . . . . .
 H38 H 0.3219 0.4717 0.1880 0.028 Uiso 1 1 calc R . . . .
 C26 C 0.41143(5) 0.49902(17) 0.22053(11) 0.0226(4) Uani 1 1 d . . . . .
 H26 H 0.4119 0.5459 0.1887 0.027 Uiso 1 1 calc R . . . .
 C22 C 0.33376(6) 1.06497(19) 0.13533(11) 0.0287(5) Uani 1 1 d . . . . .
 H22 H 0.3253 1.0964 0.0965 0.034 Uiso 1 1 calc R . . . .
 C46 C 0.41945(5) 0.44216(18) 0.53810(11) 0.0244(5) Uani 1 1 d . . . . .
 H46 H 0.4364 0.4278 0.5702 0.029 Uiso 1 1 calc R . . . .
 C18 C 0.31946(5) 1.01553(17) 0.34059(13) 0.0266(5) Uani 1 1 d . . . . .
 H18 H 0.3135 1.0130 0.2964 0.032 Uiso 1 1 calc R . . . .
 C13 C 0.34695(5) 0.97602(15) 0.37275(11) 0.0200(4) Uani 1 1 d . . . . .
 C56 C 0.28404(6) 0.7635(2) 0.29686(13) 0.0323(6) Uani 1 1 d . . . . .
 H56 H 0.2967 0.8178 0.2957 0.039 Uiso 1 1 calc R . . . .
 C69 C 0.29448(5) 0.78022(18) 0.47214(13) 0.0259(5) Uani 1 1 d . . . . .
 H69 H 0.2797 0.8265 0.4536 0.031 Uiso 1 1 calc R . . . .
 C25 C 0.41071(5) 0.53386(15) 0.28064(10) 0.0175(4) Uani 1 1 d . . . . .
 C14 C 0.35527(6) 0.98217(17) 0.43934(12) 0.0267(5) Uani 1 1 d . . . . .
 H14 H 0.3735 0.9562 0.4620 0.032 Uiso 1 1 calc R . . . .
 C7 C 0.45618(5) 0.78556(15) 0.36779(10) 0.0159(4) Uani 1 1 d . . . . .
 C40 C 0.33701(6) 0.28744(17) 0.29081(12) 0.0241(5) Uani 1 1 d . . . . .
 H40 H 0.3387 0.2168 0.2934 0.029 Uiso 1 1 calc R . . . .
 C55 C 0.29332(5) 0.66385(19) 0.29117(11) 0.0225(4) Uani 1 1 d . . . . .
 C57 C 0.25581(7) 0.7824(3) 0.30425(16) 0.0512(9) Uani 1 1 d . . . . .
 H57 H 0.2495 0.8491 0.3070 0.061 Uiso 1 1 calc R . . . .
 C34 C 0.43520(7) 0.8304(2) 0.13295(13) 0.0370(7) Uani 1 1 d . . . . .
 H34 H 0.4405 0.8643 0.1000 0.044 Uiso 1 1 calc R . . . .
 C62 C 0.42789(5) 0.79168(19) 0.49402(11) 0.0232(4) Uani 1 1 d . . . . .
 H62 H 0.4323 0.7656 0.4579 0.028 Uiso 1 1 calc R . . . .
 C5 C 0.45977(5) 0.99677(16) 0.40399(10) 0.0186(4) Uani 1 1 d . . . . .
 C21 C 0.35708(6) 1.11080(18) 0.17878(11) 0.0260(5) Uani 1 1 d . . . . .
 H21 H 0.3644 1.1728 0.1689 0.031 Uiso 1 1 calc R . . . .
 C74 C 0.72120(6) 0.5237(2) 0.55650(14) 0.0355(6) Uani 1 1 d . . . . .
 H74A H 0.7179 0.4624 0.5787 0.043 Uiso 1 1 calc R . . . .
 H74B H 0.7033 0.5376 0.5232 0.043 Uiso 1 1 calc R . . . .
 C12 C 0.44678(5) 0.68429(15) 0.35657(10) 0.0162(4) Uani 1 1 d . . . . .
 C27 C 0.41139(6) 0.39479(19) 0.20759(14) 0.0303(5) Uani 1 1 d . . . . .
 H27 H 0.4115 0.3724 0.1671 0.036 Uiso 1 1 calc R . . . .
 C54 C 0.34342(5) 0.64547(19) 0.16111(11) 0.0243(5) Uani 1 1 d . . . . .
 H54 H 0.3617 0.6219 0.1848 0.029 Uiso 1 1 calc R . . . .
 C36 C 0.44689(5) 0.71205(19) 0.22024(12) 0.0247(5) Uani 1 1 d . . . . .
 H36 H 0.4600 0.6660 0.2454 0.030 Uiso 1 1 calc R . . . .
 C19 C 0.35884(5) 0.97227(15) 0.25307(10) 0.0168(4) Uani 1 1 d . . . . .
 C1 C 0.40588(5) 0.98502(15) 0.36684(10) 0.0166(4) Uani 1 1 d . . . . .
 C68 C 0.31885(5) 0.76787(16) 0.44755(11) 0.0197(4) Uani 1 1 d . . . . .
 H68 H 0.3200 0.8056 0.4121 0.024 Uiso 1 1 calc R . . . .
 C41 C 0.34166(5) 0.34623(16) 0.34567(11) 0.0191(4) Uani 1 1 d . . . . .
 C72 C 0.33898(5) 0.64298(17) 0.52759(10) 0.0211(4) Uani 1 1 d . . . . .
 H72 H 0.3538 0.5973 0.5467 0.025 Uiso 1 1 calc R . . . .
 C67 C 0.34154(4) 0.70001(15) 0.47496(9) 0.0153(4) Uani 1 1 d . . . . .
 C37 C 0.33225(5) 0.50281(15) 0.28235(10) 0.0175(4) Uani 1 1 d . . . . .
 C49 C 0.32097(5) 0.66126(16) 0.19106(10) 0.0182(4) Uani 1 1 d . . . . .
 C43 C 0.36926(5) 0.48570(15) 0.44287(10) 0.0156(4) Uani 1 1 d . . . . .
 C3 C 0.43018(5) 1.13472(16) 0.42458(11) 0.0235(4) Uani 1 1 d . . . . .
 H3 H 0.4287 1.1996 0.4408 0.028 Uiso 1 1 calc R . . . .
 C45 C 0.40139(5) 0.36301(17) 0.50874(11) 0.0239(5) Uani 1 1 d . . . . .
 H45 H 0.4061 0.2959 0.5212 0.029 Uiso 1 1 calc R . . . .
 C11 C 0.46610(5) 0.60837(16) 0.38699(11) 0.0213(4) Uani 1 1 d . . . . .
 H11 H 0.4605 0.5403 0.3807 0.026 Uiso 1 1 calc R . . . .
 C35 C 0.45474(7) 0.7629(2) 0.17094(14) 0.0336(6) Uani 1 1 d . . . . .
 H35 H 0.4731 0.7514 0.1636 0.040 Uiso 1 1 calc R . . . .
 C2 C 0.40475(5) 1.08237(16) 0.39382(11) 0.0213(4) Uani 1 1 d . . . . .
 H2 H 0.3864 1.1122 0.3909 0.026 Uiso 1 1 calc R . . . .
 C30 C 0.40934(5) 0.46175(16) 0.32731(12) 0.0219(4) Uani 1 1 d . . . . .
 H30 H 0.4080 0.4834 0.3671 0.026 Uiso 1 1 calc R . . . .
 C44 C 0.37605(5) 0.38477(15) 0.46036(10) 0.0186(4) Uani 1 1 d . . . . .
 C28 C 0.41124(6) 0.32452(18) 0.25515(15) 0.0317(6) Uani 1 1 d . . . . .
 H28 H 0.4119 0.2550 0.2471 0.038 Uiso 1 1 calc R . . . .
 C42 C 0.33925(5) 0.45208(15) 0.34097(10) 0.0162(4) Uani 1 1 d . . . . .
 C6 C 0.43413(5) 0.94684(14) 0.37036(10) 0.0161(4) Uani 1 1 d . . . . .
 C61 C 0.40056(5) 0.77153(14) 0.50436(10) 0.0159(4) Uani 1 1 d . . . . .
 C29 C 0.41004(5) 0.35785(17) 0.31431(13) 0.0283(5) Uani 1 1 d . . . . .
 H29 H 0.4097 0.3105 0.3459 0.034 Uiso 1 1 calc R . . . .
 C31 C 0.41941(5) 0.72965(15) 0.23225(10) 0.0172(4) Uani 1 1 d . . . . .
 C58 C 0.23716(7) 0.7017(4) 0.30744(17) 0.0589(11) Uani 1 1 d . . . . .
 H58 H 0.2185 0.7144 0.3133 0.071 Uiso 1 1 calc R . . . .
 C10 C 0.49370(5) 0.63260(17) 0.42672(12) 0.0237(4) Uani 1 1 d . . . . .
 H10 H 0.5062 0.5807 0.4470 0.028 Uiso 1 1 calc R . . . .
 Cl2 Cl 0.52509(9) 0.3968(17) 0.33118(17) 0.104(4) Uani 0.54(2) 1 d . . . A 2

loop_
  _atom_site_aniso_label
  _atom_site_aniso_U_11
  _atom_site_aniso_U_22
  _atom_site_aniso_U_33
  _atom_site_aniso_U_23
  _atom_site_aniso_U_13
  _atom_site_aniso_U_12
 Pt1 0.01288(4) 0.01207(4) 0.01109(4) -0.00008(2) 0.00387(3) -0.00011(2)
 Cl3 0.0845(7) 0.0401(4) 0.0452(5) 0.0091(3) 0.0129(4) 0.0097(4)
 Cl6 0.1160(11) 0.1068(10) 0.0390(5) 0.0156(5) 0.0194(6) 0.0342(8)
 Cl5 0.0375(4) 0.0666(5) 0.0573(5) -0.0189(4) 0.0191(4) -0.0131(4)
 Cl4 0.0421(4) 0.0422(4) 0.0475(4) -0.0051(3) 0.0165(3) -0.0100(3)
 Cl1 0.054(2) 0.107(4) 0.064(3) -0.038(2) 0.035(2) -0.042(2)
 S2 0.0287(3) 0.0152(2) 0.0244(3) 0.00274(19) 0.0092(2) -0.00273(19)
 P4 0.0142(2) 0.0165(2) 0.0119(2) -0.00075(17) 0.00303(18) -0.00134(17)
 S1 0.0171(2) 0.0209(2) 0.0271(3) -0.0018(2) 0.0043(2) -0.00521(18)
 P3 0.0137(2) 0.0138(2) 0.0114(2) -0.00037(16) 0.00355(18) -0.00049(17)
 P1 0.0162(2) 0.0129(2) 0.0138(2) 0.00093(16) 0.00448(19) 0.00110(17)
 P2 0.0152(2) 0.0132(2) 0.0150(2) -0.00161(17) 0.00636(19) -0.00081(17)
 O1 0.0185(7) 0.0147(6) 0.0172(7) -0.0026(5) 0.0042(6) -0.0006(5)
 O2 0.0176(7) 0.0156(6) 0.0142(7) -0.0010(5) 0.0038(6) 0.0008(5)
 C63 0.0205(11) 0.0405(13) 0.0250(12) -0.0061(10) 0.0075(9) -0.0116(9)
 C60 0.0181(12) 0.0521(16) 0.0311(14) 0.0074(12) 0.0052(10) -0.0043(10)
 C70 0.0212(11) 0.0357(13) 0.0270(12) -0.0079(9) 0.0135(10) -0.0050(9)
 C33 0.0525(17) 0.0249(11) 0.0235(12) 0.0031(9) 0.0138(12) -0.0038(11)
 C4 0.0280(12) 0.0177(9) 0.0198(10) -0.0020(8) -0.0001(9) -0.0046(8)
 C64 0.0282(12) 0.0336(12) 0.0206(11) -0.0071(9) 0.0034(9) -0.0131(10)
 C51 0.0398(15) 0.0433(15) 0.0175(12) 0.0015(10) -0.0015(11) 0.0103(12)
 C59 0.0175(13) 0.092(3) 0.049(2) 0.0204(18) 0.0101(13) -0.0031(15)
 C16 0.0500(17) 0.0247(12) 0.0590(19) -0.0097(12) 0.0406(16) -0.0035(11)
 C50 0.0260(12) 0.0368(13) 0.0180(11) -0.0005(9) 0.0023(9) 0.0061(10)
 C73 0.060(2) 0.096(3) 0.048(2) -0.027(2) 0.0178(19) -0.016(2)
 C24 0.0273(12) 0.0178(9) 0.0217(11) 0.0017(8) 0.0027(9) 0.0004(8)
 C53 0.0359(14) 0.0419(14) 0.0186(11) -0.0025(10) 0.0110(10) -0.0072(11)
 C48 0.0175(9) 0.0158(8) 0.0146(9) 0.0005(7) 0.0059(8) 0.0009(7)
 C20 0.0256(11) 0.0203(10) 0.0190(10) 0.0027(8) 0.0085(9) -0.0006(8)
 C75 0.106(5) 0.057(3) 0.024(2) 0.000 0.013(3) 0.000
 C39 0.0371(14) 0.0220(10) 0.0226(11) -0.0087(8) 0.0091(10) -0.0102(9)
 C17 0.0317(14) 0.0293(13) 0.0594(19) -0.0060(12) 0.0231(13) 0.0046(10)
 C23 0.0317(13) 0.0286(12) 0.0210(11) 0.0009(9) -0.0018(10) 0.0041(9)
 C66 0.0219(11) 0.0278(11) 0.0202(11) -0.0088(8) 0.0085(9) -0.0064(8)
 C52 0.0478(16) 0.0358(13) 0.0134(10) 0.0010(9) 0.0053(10) -0.0021(12)
 C65 0.0319(13) 0.0353(13) 0.0228(12) -0.0138(10) 0.0119(10) -0.0105(10)
 C9 0.0144(10) 0.0255(10) 0.0205(11) -0.0010(8) 0.0037(8) 0.0003(7)
 C8 0.0177(10) 0.0175(9) 0.0187(10) -0.0026(7) 0.0073(8) -0.0027(7)
 C71 0.0270(12) 0.0329(12) 0.0181(11) -0.0002(9) 0.0107(9) -0.0055(9)
 C47 0.0208(10) 0.0222(10) 0.0182(10) 0.0006(8) 0.0027(8) 0.0016(8)
 C32 0.0294(12) 0.0193(9) 0.0209(11) 0.0000(8) 0.0096(9) -0.0017(8)
 C15 0.0612(19) 0.0207(11) 0.0345(14) -0.0036(9) 0.0314(14) -0.0031(11)
 C38 0.0310(12) 0.0219(10) 0.0162(10) -0.0023(8) 0.0044(9) -0.0073(9)
 C26 0.0245(11) 0.0191(10) 0.0256(11) -0.0055(8) 0.0091(9) -0.0032(8)
 C22 0.0379(14) 0.0302(12) 0.0169(11) 0.0057(9) 0.0054(10) 0.0112(10)
 C46 0.0224(11) 0.0266(11) 0.0210(11) 0.0041(8) 0.0003(9) 0.0058(8)
 C18 0.0246(12) 0.0218(10) 0.0364(14) -0.0022(9) 0.0132(10) 0.0026(8)
 C13 0.0259(11) 0.0128(8) 0.0247(11) 0.0013(7) 0.0129(9) 0.0014(7)
 C56 0.0258(13) 0.0434(15) 0.0266(13) -0.0021(10) 0.0049(10) 0.0119(10)
 C69 0.0189(11) 0.0282(11) 0.0325(13) -0.0003(9) 0.0101(10) 0.0020(8)
 C25 0.0155(9) 0.0162(9) 0.0225(10) -0.0032(7) 0.0082(8) -0.0009(7)
 C14 0.0433(14) 0.0172(10) 0.0240(12) 0.0027(8) 0.0166(11) 0.0027(9)
 C7 0.0161(9) 0.0159(9) 0.0174(9) 0.0003(7) 0.0077(8) 0.0007(7)
 C40 0.0290(12) 0.0169(9) 0.0280(12) -0.0051(8) 0.0105(10) -0.0065(8)
 C55 0.0159(10) 0.0366(12) 0.0141(10) 0.0020(8) 0.0025(8) 0.0019(8)
 C57 0.0368(17) 0.078(2) 0.0395(18) 0.0030(16) 0.0110(14) 0.0325(17)
 C34 0.0565(18) 0.0367(14) 0.0239(13) -0.0021(10) 0.0215(13) -0.0195(13)
 C62 0.0224(11) 0.0302(11) 0.0185(10) -0.0066(8) 0.0077(9) -0.0067(9)
 C5 0.0201(10) 0.0169(9) 0.0176(10) -0.0002(7) 0.0026(8) -0.0021(7)
 C21 0.0372(13) 0.0223(10) 0.0217(11) 0.0067(8) 0.0132(10) 0.0037(9)
 C74 0.0284(13) 0.0401(14) 0.0368(15) 0.0004(11) 0.0064(11) -0.0075(11)
 C12 0.0158(9) 0.0166(9) 0.0184(10) -0.0029(7) 0.0083(8) -0.0010(7)
 C27 0.0297(13) 0.0250(11) 0.0391(14) -0.0162(10) 0.0142(11) -0.0050(9)
 C54 0.0235(11) 0.0322(12) 0.0174(10) -0.0014(8) 0.0055(9) -0.0032(9)
 C36 0.0253(12) 0.0301(11) 0.0219(11) -0.0038(9) 0.0121(9) -0.0040(9)
 C19 0.0205(10) 0.0158(9) 0.0150(9) 0.0016(7) 0.0065(8) 0.0030(7)
 C1 0.0202(10) 0.0145(8) 0.0146(9) 0.0012(7) 0.0036(8) -0.0005(7)
 C68 0.0169(10) 0.0210(10) 0.0221(11) 0.0010(8) 0.0067(8) -0.0015(7)
 C41 0.0214(10) 0.0164(9) 0.0207(10) 0.0004(7) 0.0075(8) -0.0038(7)
 C72 0.0227(11) 0.0264(10) 0.0151(10) 0.0005(8) 0.0063(8) -0.0010(8)
 C67 0.0151(9) 0.0177(8) 0.0133(9) -0.0024(7) 0.0042(7) -0.0035(7)
 C37 0.0172(10) 0.0170(9) 0.0185(10) -0.0021(7) 0.0048(8) -0.0042(7)
 C49 0.0220(10) 0.0181(9) 0.0135(9) -0.0016(7) 0.0033(8) -0.0034(7)
 C43 0.0157(9) 0.0176(9) 0.0145(9) 0.0005(7) 0.0055(7) 0.0014(7)
 C3 0.0299(12) 0.0140(9) 0.0244(11) -0.0038(8) 0.0030(9) -0.0009(8)
 C45 0.0293(12) 0.0197(10) 0.0237(11) 0.0063(8) 0.0086(9) 0.0074(8)
 C11 0.0201(10) 0.0174(9) 0.0268(11) -0.0005(8) 0.0070(9) 0.0011(7)
 C35 0.0337(14) 0.0459(15) 0.0288(14) -0.0062(11) 0.0214(12) -0.0141(11)
 C2 0.0245(11) 0.0168(9) 0.0208(10) -0.0008(7) 0.0026(9) 0.0023(8)
 C30 0.0211(11) 0.0191(10) 0.0269(11) 0.0003(8) 0.0090(9) -0.0019(8)
 C44 0.0227(10) 0.0161(9) 0.0188(10) 0.0025(7) 0.0083(8) 0.0008(7)
 C28 0.0244(12) 0.0169(10) 0.0552(17) -0.0083(10) 0.0132(12) -0.0049(8)
 C42 0.0158(9) 0.0174(9) 0.0163(9) -0.0021(7) 0.0062(7) -0.0039(7)
 C6 0.0215(10) 0.0126(8) 0.0145(9) -0.0001(7) 0.0056(8) -0.0021(7)
 C61 0.0207(10) 0.0138(8) 0.0133(9) 0.0002(6) 0.0045(8) -0.0005(7)
 C29 0.0251(12) 0.0180(10) 0.0426(15) 0.0040(9) 0.0105(11) -0.0016(8)
 C31 0.0209(10) 0.0171(9) 0.0153(9) -0.0037(7) 0.0076(8) -0.0051(7)
 C58 0.0199(14) 0.115(3) 0.0447(19) 0.022(2) 0.0131(13) 0.0228(18)
 C10 0.0204(11) 0.0222(10) 0.0275(12) 0.0005(8) 0.0046(9) 0.0038(8)
 Cl2 0.0388(13) 0.229(12) 0.0438(12) -0.007(3) 0.0092(10) -0.033(3)

_geom_special_details
;
 All esds (except the esd in the dihedral angle between two l.s. planes)
 are estimated using the full covariance matrix.  The cell esds are taken
 into account individually in the estimation of esds in distances, angles
 and torsion angles; correlations between esds in cell parameters are only
 used when they are defined by crystal symmetry.  An approximate (isotropic)
 treatment of cell esds is used for estimating esds involving l.s. planes.
;
loop_
  _geom_bond_atom_site_label_1
  _geom_bond_atom_site_label_2
  _geom_bond_distance
  _geom_bond_site_symmetry_2
  _geom_bond_publ_flag
 Pt1 P4 2.3249(5) . ?
 Pt1 P3 2.3242(5) . ?
 Pt1 P1 2.3325(5) . ?
 Pt1 P2 2.3209(5) . ?
 Cl3 C73 1.750(4) . ?
 Cl6 C75 1.759(3) . ?
 Cl5 C74 1.757(3) . ?
 Cl4 C74 1.766(3) . ?
 Cl1 C73 1.879(6) . ?
 S2 C41 1.767(2) . ?
 S2 C44 1.767(2) . ?
 P4 C55 1.836(2) . ?
 P4 C37 1.850(2) . ?
 P4 C49 1.851(2) . ?
 S1 C8 1.762(2) . ?
 S1 C5 1.765(2) . ?
 P3 C48 1.837(2) . ?
 P3 C67 1.843(2) . ?
 P3 C61 1.838(2) . ?
 P1 C13 1.851(2) . ?
 P1 C19 1.848(2) . ?
 P1 C1 1.863(2) . ?
 P2 C25 1.841(2) . ?
 P2 C12 1.843(2) . ?
 P2 C31 1.851(2) . ?
 O1 C7 1.384(2) . ?
 O1 C6 1.380(2) . ?
 O2 C43 1.393(2) . ?
 O2 C42 1.392(2) . ?
 C63 H63 0.9300 . ?
 C63 C64 1.383(3) . ?
 C63 C62 1.395(3) . ?
 C60 H60 0.9300 . ?
 C60 C59 1.400(4) . ?
 C60 C55 1.396(4) . ?
 C70 H70 0.9300 . ?
 C70 C71 1.388(4) . ?
 C70 C69 1.392(4) . ?
 C33 H33 0.9300 . ?
 C33 C32 1.399(3) . ?
 C33 C34 1.384(4) . ?
 C4 H4 0.9300 . ?
 C4 C5 1.388(3) . ?
 C4 C3 1.385(3) . ?
 C64 H64 0.9300 . ?
 C64 C65 1.386(3) . ?
 C51 H51 0.9300 . ?
 C51 C50 1.391(4) . ?
 C51 C52 1.379(4) . ?
 C59 H59 0.9300 . ?
 C59 C58 1.360(6) . ?
 C16 H16 0.9300 . ?
 C16 C17 1.380(5) . ?
 C16 C15 1.379(5) . ?
 C50 H50 0.9300 . ?
 C50 C49 1.395(3) . ?
 C73 H73A 0.9700 . ?
 C73 H73B 0.9700 . ?
 C73 H73C 0.9700 . ?
 C73 H73D 0.9700 . ?
 C73 Cl2 1.638(7) . ?
 C24 H24 0.9300 . ?
 C24 C23 1.392(3) . ?
 C24 C19 1.395(3) . ?
 C53 H53 0.9300 . ?
 C53 C52 1.383(4) . ?
 C53 C54 1.390(3) . ?
 C48 C47 1.400(3) . ?
 C48 C43 1.394(3) . ?
 C20 H20 0.9300 . ?
 C20 C21 1.391(3) . ?
 C20 C19 1.394(3) . ?
 C75 Cl6 1.759(3) 2_655 ?
 C75 H75A 0.9700 . ?
 C75 H75B 0.9700 . ?
 C39 H39 0.9300 . ?
 C39 C38 1.389(3) . ?
 C39 C40 1.385(4) . ?
 C17 H17 0.9300 . ?
 C17 C18 1.392(3) . ?
 C23 H23 0.9300 . ?
 C23 C22 1.382(4) . ?
 C66 H66 0.9300 . ?
 C66 C65 1.390(3) . ?
 C66 C61 1.401(3) . ?
 C52 H52 0.9300 . ?
 C65 H65 0.9300 . ?
 C9 H9 0.9300 . ?
 C9 C8 1.402(3) . ?
 C9 C10 1.388(3) . ?
 C8 C7 1.381(3) . ?
 C71 H71 0.9300 . ?
 C71 C72 1.388(3) . ?
 C47 H47 0.9300 . ?
 C47 C46 1.395(3) . ?
 C32 H32 0.9300 . ?
 C32 C31 1.387(3) . ?
 C15 H15 0.9300 . ?
 C15 C14 1.392(3) . ?
 C38 H38 0.9300 . ?
 C38 C37 1.403(3) . ?
 C26 H26 0.9300 . ?
 C26 C25 1.395(3) . ?
 C26 C27 1.394(3) . ?
 C22 H22 0.9300 . ?
 C22 C21 1.381(4) . ?
 C46 H46 0.9300 . ?
 C46 C45 1.384(3) . ?
 C18 H18 0.9300 . ?
 C18 C13 1.395(3) . ?
 C13 C14 1.402(3) . ?
 C56 H56 0.9300 . ?
 C56 C55 1.392(3) . ?
 C56 C57 1.396(4) . ?
 C69 H69 0.9300 . ?
 C69 C68 1.393(3) . ?
 C25 C30 1.402(3) . ?
 C14 H14 0.9300 . ?
 C7 C12 1.399(3) . ?
 C40 H40 0.9300 . ?
 C40 C41 1.390(3) . ?
 C57 H57 0.9300 . ?
 C57 C58 1.385(6) . ?
 C34 H34 0.9300 . ?
 C34 C35 1.382(4) . ?
 C62 H62 0.9300 . ?
 C62 C61 1.383(3) . ?
 C5 C6 1.395(3) . ?
 C21 H21 0.9300 . ?
 C74 H74A 0.9700 . ?
 C74 H74B 0.9700 . ?
 C12 C11 1.390(3) . ?
 C27 H27 0.9300 . ?
 C27 C28 1.387(4) . ?
 C54 H54 0.9300 . ?
 C54 C49 1.391(3) . ?
 C36 H36 0.9300 . ?
 C36 C35 1.393(3) . ?
 C36 C31 1.399(3) . ?
 C1 C2 1.411(3) . ?
 C1 C6 1.399(3) . ?
 C68 H68 0.9300 . ?
 C68 C67 1.395(3) . ?
 C41 C42 1.393(3) . ?
 C72 H72 0.9300 . ?
 C72 C67 1.400(3) . ?
 C37 C42 1.400(3) . ?
 C43 C44 1.390(3) . ?
 C3 H3 0.9300 . ?
 C3 C2 1.386(3) . ?
 C45 H45 0.9300 . ?
 C45 C44 1.395(3) . ?
 C11 H11 0.9300 . ?
 C11 C10 1.391(3) . ?
 C35 H35 0.9300 . ?
 C2 H2 0.9300 . ?
 C30 H30 0.9300 . ?
 C30 C29 1.392(3) . ?
 C28 H28 0.9300 . ?
 C28 C29 1.376(4) . ?
 C29 H29 0.9300 . ?
 C58 H58 0.9300 . ?
 C10 H10 0.9300 . ?

loop_
  _geom_angle_atom_site_label_1
  _geom_angle_atom_site_label_2
  _geom_angle_atom_site_label_3
  _geom_angle
  _geom_angle_site_symmetry_1
  _geom_angle_site_symmetry_3
  _geom_angle_publ_flag
 P4 Pt1 P1 119.313(18) . . ?
 P3 Pt1 P4 106.377(18) . . ?
 P3 Pt1 P1 105.501(18) . . ?
 P2 Pt1 P4 103.741(18) . . ?
 P2 Pt1 P3 114.224(18) . . ?
 P2 Pt1 P1 108.059(18) . . ?
 C41 S2 C44 96.82(10) . . ?
 C55 P4 Pt1 120.88(8) . . ?
 C55 P4 C37 100.23(10) . . ?
 C55 P4 C49 99.53(10) . . ?
 C37 P4 Pt1 116.52(7) . . ?
 C37 P4 C49 99.60(10) . . ?
 C49 P4 Pt1 116.44(7) . . ?
 C8 S1 C5 98.47(10) . . ?
 C48 P3 Pt1 116.91(7) . . ?
 C48 P3 C67 97.82(9) . . ?
 C48 P3 C61 99.53(9) . . ?
 C67 P3 Pt1 120.75(7) . . ?
 C61 P3 Pt1 117.36(7) . . ?
 C61 P3 C67 100.54(9) . . ?
 C13 P1 Pt1 114.62(7) . . ?
 C13 P1 C1 97.94(10) . . ?
 C19 P1 Pt1 119.01(7) . . ?
 C19 P1 C13 98.70(10) . . ?
 C19 P1 C1 100.74(9) . . ?
 C1 P1 Pt1 121.58(7) . . ?
 C25 P2 Pt1 119.76(7) . . ?
 C25 P2 C12 100.41(9) . . ?
 C25 P2 C31 100.70(9) . . ?
 C12 P2 Pt1 115.25(7) . . ?
 C12 P2 C31 95.81(10) . . ?
 C31 P2 Pt1 120.58(7) . . ?
 C6 O1 C7 117.15(16) . . ?
 C42 O2 C43 114.15(16) . . ?
 C64 C63 H63 120.1 . . ?
 C64 C63 C62 119.9(2) . . ?
 C62 C63 H63 120.1 . . ?
 C59 C60 H60 120.0 . . ?
 C55 C60 H60 120.0 . . ?
 C55 C60 C59 120.0(3) . . ?
 C71 C70 H70 120.2 . . ?
 C71 C70 C69 119.6(2) . . ?
 C69 C70 H70 120.2 . . ?
 C32 C33 H33 120.0 . . ?
 C34 C33 H33 120.0 . . ?
 C34 C33 C32 120.0(3) . . ?
 C5 C4 H4 120.4 . . ?
 C3 C4 H4 120.4 . . ?
 C3 C4 C5 119.2(2) . . ?
 C63 C64 H64 120.2 . . ?
 C63 C64 C65 119.6(2) . . ?
 C65 C64 H64 120.2 . . ?
 C50 C51 H51 119.6 . . ?
 C52 C51 H51 119.6 . . ?
 C52 C51 C50 120.7(3) . . ?
 C60 C59 H59 119.7 . . ?
 C58 C59 C60 120.6(3) . . ?
 C58 C59 H59 119.7 . . ?
 C17 C16 H16 120.1 . . ?
 C15 C16 H16 120.1 . . ?
 C15 C16 C17 119.7(2) . . ?
 C51 C50 H50 119.7 . . ?
 C51 C50 C49 120.7(2) . . ?
 C49 C50 H50 119.7 . . ?
 Cl3 C73 Cl1 112.9(3) . . ?
 Cl3 C73 H73A 109.0 . . ?
 Cl3 C73 H73B 109.0 . . ?
 Cl3 C73 H73C 109.7 . . ?
 Cl3 C73 H73D 109.7 . . ?
 Cl1 C73 H73A 109.0 . . ?
 Cl1 C73 H73B 109.0 . . ?
 H73A C73 H73B 107.8 . . ?
 H73C C73 H73D 108.2 . . ?
 Cl2 C73 Cl3 109.9(3) . . ?
 Cl2 C73 H73C 109.7 . . ?
 Cl2 C73 H73D 109.7 . . ?
 C23 C24 H24 119.4 . . ?
 C23 C24 C19 121.2(2) . . ?
 C19 C24 H24 119.4 . . ?
 C52 C53 H53 120.0 . . ?
 C52 C53 C54 120.0(2) . . ?
 C54 C53 H53 120.0 . . ?
 C47 C48 P3 125.88(16) . . ?
 C43 C48 P3 116.62(15) . . ?
 C43 C48 C47 117.48(19) . . ?
 C21 C20 H20 119.7 . . ?
 C21 C20 C19 120.5(2) . . ?
 C19 C20 H20 119.7 . . ?
 Cl6 C75 Cl6 111.0(3) . 2_655 ?
 Cl6 C75 H75A 109.4 . . ?
 Cl6 C75 H75A 109.4 2_655 . ?
 Cl6 C75 H75B 109.4 2_655 . ?
 Cl6 C75 H75B 109.4 . . ?
 H75A C75 H75B 108.0 . . ?
 C38 C39 H39 119.6 . . ?
 C40 C39 H39 119.6 . . ?
 C40 C39 C38 120.8(2) . . ?
 C16 C17 H17 119.9 . . ?
 C16 C17 C18 120.3(3) . . ?
 C18 C17 H17 119.9 . . ?
 C24 C23 H23 120.1 . . ?
 C22 C23 C24 119.9(2) . . ?
 C22 C23 H23 120.1 . . ?
 C65 C66 H66 119.8 . . ?
 C65 C66 C61 120.4(2) . . ?
 C61 C66 H66 119.8 . . ?
 C51 C52 C53 119.3(2) . . ?
 C51 C52 H52 120.3 . . ?
 C53 C52 H52 120.3 . . ?
 C64 C65 C66 120.5(2) . . ?
 C64 C65 H65 119.8 . . ?
 C66 C65 H65 119.8 . . ?
 C8 C9 H9 120.3 . . ?
 C10 C9 H9 120.3 . . ?
 C10 C9 C8 119.3(2) . . ?
 C9 C8 S1 121.76(17) . . ?
 C7 C8 S1 119.17(16) . . ?
 C7 C8 C9 119.00(19) . . ?
 C70 C71 H71 119.8 . . ?
 C70 C71 C72 120.5(2) . . ?
 C72 C71 H71 119.8 . . ?
 C48 C47 H47 119.6 . . ?
 C46 C47 C48 120.8(2) . . ?
 C46 C47 H47 119.6 . . ?
 C33 C32 H32 119.7 . . ?
 C31 C32 C33 120.5(2) . . ?
 C31 C32 H32 119.7 . . ?
 C16 C15 H15 119.8 . . ?
 C16 C15 C14 120.4(3) . . ?
 C14 C15 H15 119.8 . . ?
 C39 C38 H38 119.2 . . ?
 C39 C38 C37 121.5(2) . . ?
 C37 C38 H38 119.2 . . ?
 C25 C26 H26 119.6 . . ?
 C27 C26 H26 119.6 . . ?
 C27 C26 C25 120.7(2) . . ?
 C23 C22 H22 120.2 . . ?
 C21 C22 C23 119.7(2) . . ?
 C21 C22 H22 120.2 . . ?
 C47 C46 H46 119.7 . . ?
 C45 C46 C47 120.7(2) . . ?
 C45 C46 H46 119.7 . . ?
 C17 C18 H18 119.5 . . ?
 C17 C18 C13 121.0(3) . . ?
 C13 C18 H18 119.5 . . ?
 C18 C13 P1 122.88(18) . . ?
 C18 C13 C14 117.9(2) . . ?
 C14 C13 P1 119.15(18) . . ?
 C55 C56 H56 119.9 . . ?
 C55 C56 C57 120.2(3) . . ?
 C57 C56 H56 119.9 . . ?
 C70 C69 H69 120.1 . . ?
 C70 C69 C68 119.7(2) . . ?
 C68 C69 H69 120.1 . . ?
 C26 C25 P2 123.56(17) . . ?
 C26 C25 C30 118.51(19) . . ?
 C30 C25 P2 117.88(16) . . ?
 C15 C14 C13 120.7(3) . . ?
 C15 C14 H14 119.6 . . ?
 C13 C14 H14 119.6 . . ?
 O1 C7 C12 116.02(18) . . ?
 C8 C7 O1 121.32(18) . . ?
 C8 C7 C12 122.63(19) . . ?
 C39 C40 H40 120.5 . . ?
 C39 C40 C41 119.0(2) . . ?
 C41 C40 H40 120.5 . . ?
 C60 C55 P4 122.7(2) . . ?
 C56 C55 P4 118.4(2) . . ?
 C56 C55 C60 118.8(2) . . ?
 C56 C57 H57 120.0 . . ?
 C58 C57 C56 120.1(3) . . ?
 C58 C57 H57 120.0 . . ?
 C33 C34 H34 120.0 . . ?
 C35 C34 C33 120.1(2) . . ?
 C35 C34 H34 120.0 . . ?
 C63 C62 H62 119.4 . . ?
 C61 C62 C63 121.3(2) . . ?
 C61 C62 H62 119.4 . . ?
 C4 C5 S1 119.93(17) . . ?
 C4 C5 C6 119.8(2) . . ?
 C6 C5 S1 120.22(16) . . ?
 C20 C21 H21 119.7 . . ?
 C22 C21 C20 120.6(2) . . ?
 C22 C21 H21 119.7 . . ?
 Cl5 C74 Cl4 111.34(15) . . ?
 Cl5 C74 H74A 109.4 . . ?
 Cl5 C74 H74B 109.4 . . ?
 Cl4 C74 H74A 109.4 . . ?
 Cl4 C74 H74B 109.4 . . ?
 H74A C74 H74B 108.0 . . ?
 C7 C12 P2 114.20(15) . . ?
 C11 C12 P2 128.45(16) . . ?
 C11 C12 C7 117.34(19) . . ?
 C26 C27 H27 120.0 . . ?
 C28 C27 C26 119.9(2) . . ?
 C28 C27 H27 120.0 . . ?
 C53 C54 H54 119.3 . . ?
 C53 C54 C49 121.4(2) . . ?
 C49 C54 H54 119.3 . . ?
 C35 C36 H36 119.7 . . ?
 C35 C36 C31 120.5(2) . . ?
 C31 C36 H36 119.7 . . ?
 C24 C19 P1 117.64(16) . . ?
 C20 C19 P1 124.10(17) . . ?
 C20 C19 C24 118.1(2) . . ?
 C2 C1 P1 121.55(17) . . ?
 C6 C1 P1 122.37(15) . . ?
 C6 C1 C2 116.03(19) . . ?
 C69 C68 H68 119.3 . . ?
 C69 C68 C67 121.3(2) . . ?
 C67 C68 H68 119.3 . . ?
 C40 C41 S2 120.73(17) . . ?
 C40 C41 C42 119.8(2) . . ?
 C42 C41 S2 119.45(17) . . ?
 C71 C72 H72 119.6 . . ?
 C71 C72 C67 120.8(2) . . ?
 C67 C72 H72 119.6 . . ?
 C68 C67 P3 118.78(16) . . ?
 C68 C67 C72 118.1(2) . . ?
 C72 C67 P3 122.98(16) . . ?
 C38 C37 P4 122.64(17) . . ?
 C42 C37 P4 120.90(16) . . ?
 C42 C37 C38 116.46(19) . . ?
 C50 C49 P4 124.40(18) . . ?
 C54 C49 P4 117.66(17) . . ?
 C54 C49 C50 117.8(2) . . ?
 O2 C43 C48 117.39(17) . . ?
 C44 C43 O2 120.32(18) . . ?
 C44 C43 C48 122.27(19) . . ?
 C4 C3 H3 119.7 . . ?
 C4 C3 C2 120.6(2) . . ?
 C2 C3 H3 119.7 . . ?
 C46 C45 H45 120.3 . . ?
 C46 C45 C44 119.5(2) . . ?
 C44 C45 H45 120.3 . . ?
 C12 C11 H11 119.5 . . ?
 C12 C11 C10 121.1(2) . . ?
 C10 C11 H11 119.5 . . ?
 C34 C35 C36 120.0(3) . . ?
 C34 C35 H35 120.0 . . ?
 C36 C35 H35 120.0 . . ?
 C1 C2 H2 119.1 . . ?
 C3 C2 C1 121.8(2) . . ?
 C3 C2 H2 119.1 . . ?
 C25 C30 H30 119.9 . . ?
 C29 C30 C25 120.2(2) . . ?
 C29 C30 H30 119.9 . . ?
 C43 C44 S2 118.36(17) . . ?
 C43 C44 C45 119.3(2) . . ?
 C45 C44 S2 122.28(16) . . ?
 C27 C28 H28 120.0 . . ?
 C29 C28 C27 119.9(2) . . ?
 C29 C28 H28 120.0 . . ?
 O2 C42 C41 118.94(18) . . ?
 O2 C42 C37 118.73(17) . . ?
 C41 C42 C37 122.32(19) . . ?
 O1 C6 C5 119.27(19) . . ?
 O1 C6 C1 118.38(18) . . ?
 C5 C6 C1 122.27(19) . . ?
 C66 C61 P3 124.40(17) . . ?
 C62 C61 P3 117.18(16) . . ?
 C62 C61 C66 118.4(2) . . ?
 C30 C29 H29 119.7 . . ?
 C28 C29 C30 120.6(2) . . ?
 C28 C29 H29 119.7 . . ?
 C32 C31 P2 120.13(17) . . ?
 C32 C31 C36 118.9(2) . . ?
 C36 C31 P2 120.91(18) . . ?
 C59 C58 C57 120.2(3) . . ?
 C59 C58 H58 119.9 . . ?
 C57 C58 H58 119.9 . . ?
 C9 C10 C11 120.6(2) . . ?
 C9 C10 H10 119.7 . . ?
 C11 C10 H10 119.7 . . ?

loop_
  _geom_torsion_atom_site_label_1
  _geom_torsion_atom_site_label_2
  _geom_torsion_atom_site_label_3
  _geom_torsion_atom_site_label_4
  _geom_torsion
  _geom_torsion_site_symmetry_1
  _geom_torsion_site_symmetry_2
  _geom_torsion_site_symmetry_3
  _geom_torsion_site_symmetry_4
  _geom_torsion_publ_flag
 Pt1 P4 C55 C60 -137.55(18) . . . . ?
 Pt1 P4 C55 C56 45.2(2) . . . . ?
 Pt1 P4 C37 C38 -126.78(18) . . . . ?
 Pt1 P4 C37 C42 53.04(19) . . . . ?
 Pt1 P4 C49 C50 -123.87(19) . . . . ?
 Pt1 P4 C49 C54 52.28(19) . . . . ?
 Pt1 P3 C48 C47 119.18(18) . . . . ?
 Pt1 P3 C48 C43 -62.48(17) . . . . ?
 Pt1 P3 C67 C68 -30.02(19) . . . . ?
 Pt1 P3 C67 C72 154.14(15) . . . . ?
 Pt1 P3 C61 C66 136.11(17) . . . . ?
 Pt1 P3 C61 C62 -42.23(19) . . . . ?
 Pt1 P1 C13 C18 -101.20(18) . . . . ?
 Pt1 P1 C13 C14 75.38(18) . . . . ?
 Pt1 P1 C19 C24 34.4(2) . . . . ?
 Pt1 P1 C19 C20 -149.39(16) . . . . ?
 Pt1 P1 C1 C2 -145.97(15) . . . . ?
 Pt1 P1 C1 C6 31.5(2) . . . . ?
 Pt1 P2 C25 C26 121.50(17) . . . . ?
 Pt1 P2 C25 C30 -55.73(19) . . . . ?
 Pt1 P2 C12 C7 -66.32(16) . . . . ?
 Pt1 P2 C12 C11 114.66(19) . . . . ?
 Pt1 P2 C31 C32 -13.8(2) . . . . ?
 Pt1 P2 C31 C36 162.59(15) . . . . ?
 S2 C41 C42 O2 -2.6(3) . . . . ?
 S2 C41 C42 C37 178.41(16) . . . . ?
 P4 C37 C42 O2 2.4(3) . . . . ?
 P4 C37 C42 C41 -178.63(17) . . . . ?
 S1 C8 C7 O1 -3.2(3) . . . . ?
 S1 C8 C7 C12 174.53(16) . . . . ?
 S1 C5 C6 O1 -7.8(3) . . . . ?
 S1 C5 C6 C1 175.52(16) . . . . ?
 P3 C48 C47 C46 178.46(18) . . . . ?
 P3 C48 C43 O2 -0.7(2) . . . . ?
 P3 C48 C43 C44 -178.86(16) . . . . ?
 P1 C13 C14 C15 -176.92(18) . . . . ?
 P1 C1 C2 C3 174.70(18) . . . . ?
 P1 C1 C6 O1 11.9(3) . . . . ?
 P1 C1 C6 C5 -171.38(16) . . . . ?
 P2 C25 C30 C29 -179.79(18) . . . . ?
 P2 C12 C11 C10 178.70(18) . . . . ?
 O1 C7 C12 P2 0.7(2) . . . . ?
 O1 C7 C12 C11 179.79(19) . . . . ?
 O2 C43 C44 S2 0.7(3) . . . . ?
 O2 C43 C44 C45 -177.58(19) . . . . ?
 C63 C64 C65 C66 0.4(4) . . . . ?
 C63 C62 C61 P3 178.7(2) . . . . ?
 C63 C62 C61 C66 0.3(4) . . . . ?
 C60 C59 C58 C57 -0.3(5) . . . . ?
 C70 C71 C72 C67 -1.2(4) . . . . ?
 C70 C69 C68 C67 -0.8(4) . . . . ?
 C33 C32 C31 P2 175.97(18) . . . . ?
 C33 C32 C31 C36 -0.5(3) . . . . ?
 C33 C34 C35 C36 0.0(4) . . . . ?
 C4 C5 C6 O1 171.92(19) . . . . ?
 C4 C5 C6 C1 -4.8(3) . . . . ?
 C4 C3 C2 C1 -1.8(4) . . . . ?
 C64 C63 C62 C61 -0.3(4) . . . . ?
 C51 C50 C49 P4 174.4(2) . . . . ?
 C51 C50 C49 C54 -1.8(4) . . . . ?
 C59 C60 C55 P4 -179.2(2) . . . . ?
 C59 C60 C55 C56 -2.0(4) . . . . ?
 C16 C17 C18 C13 0.7(4) . . . . ?
 C16 C15 C14 C13 1.0(4) . . . . ?
 C50 C51 C52 C53 0.9(4) . . . . ?
 C24 C23 C22 C21 0.3(4) . . . . ?
 C53 C54 C49 P4 -175.24(19) . . . . ?
 C53 C54 C49 C50 1.2(4) . . . . ?
 C48 P3 C67 C68 -157.85(17) . . . . ?
 C48 P3 C67 C72 26.30(19) . . . . ?
 C48 P3 C61 C66 -96.8(2) . . . . ?
 C48 P3 C61 C62 84.90(18) . . . . ?
 C48 C47 C46 C45 -0.1(4) . . . . ?
 C48 C43 C44 S2 178.88(16) . . . . ?
 C48 C43 C44 C45 0.6(3) . . . . ?
 C39 C38 C37 P4 178.12(19) . . . . ?
 C39 C38 C37 C42 -1.7(3) . . . . ?
 C39 C40 C41 S2 -179.06(19) . . . . ?
 C39 C40 C41 C42 -0.6(4) . . . . ?
 C17 C16 C15 C14 -0.9(4) . . . . ?
 C17 C18 C13 P1 175.97(19) . . . . ?
 C17 C18 C13 C14 -0.7(3) . . . . ?
 C23 C24 C19 P1 174.37(19) . . . . ?
 C23 C24 C19 C20 -2.0(3) . . . . ?
 C23 C22 C21 C20 -0.7(4) . . . . ?
 C52 C51 C50 C49 0.8(4) . . . . ?
 C52 C53 C54 C49 0.4(4) . . . . ?
 C65 C66 C61 P3 -178.29(19) . . . . ?
 C65 C66 C61 C62 0.0(3) . . . . ?
 C9 C8 C7 O1 179.74(19) . . . . ?
 C9 C8 C7 C12 -2.5(3) . . . . ?
 C8 S1 C5 C4 152.59(19) . . . . ?
 C8 S1 C5 C6 -27.7(2) . . . . ?
 C8 C9 C10 C11 0.1(4) . . . . ?
 C8 C7 C12 P2 -177.22(17) . . . . ?
 C8 C7 C12 C11 1.9(3) . . . . ?
 C71 C70 C69 C68 -0.4(4) . . . . ?
 C71 C72 C67 P3 175.90(17) . . . . ?
 C71 C72 C67 C68 0.0(3) . . . . ?
 C47 C48 C43 O2 177.82(18) . . . . ?
 C47 C48 C43 C44 -0.4(3) . . . . ?
 C47 C46 C45 C44 0.3(4) . . . . ?
 C32 C33 C34 C35 0.5(4) . . . . ?
 C15 C16 C17 C18 0.1(4) . . . . ?
 C38 C39 C40 C41 0.1(4) . . . . ?
 C38 C37 C42 O2 -177.78(19) . . . . ?
 C38 C37 C42 C41 1.2(3) . . . . ?
 C26 C25 C30 C29 2.8(3) . . . . ?
 C26 C27 C28 C29 2.3(4) . . . . ?
 C46 C45 C44 S2 -178.75(18) . . . . ?
 C46 C45 C44 C43 -0.5(3) . . . . ?
 C18 C13 C14 C15 -0.2(3) . . . . ?
 C13 P1 C19 C24 -90.08(18) . . . . ?
 C13 P1 C19 C20 86.1(2) . . . . ?
 C13 P1 C1 C2 -20.56(19) . . . . ?
 C13 P1 C1 C6 156.90(18) . . . . ?
 C56 C57 C58 C59 -1.5(5) . . . . ?
 C69 C70 C71 C72 1.4(4) . . . . ?
 C69 C68 C67 P3 -175.06(18) . . . . ?
 C69 C68 C67 C72 1.0(3) . . . . ?
 C25 P2 C12 C7 163.55(16) . . . . ?
 C25 P2 C12 C11 -15.5(2) . . . . ?
 C25 P2 C31 C32 120.48(18) . . . . ?
 C25 P2 C31 C36 -63.11(19) . . . . ?
 C25 C26 C27 C28 -1.3(4) . . . . ?
 C25 C30 C29 C28 -1.8(4) . . . . ?
 C7 O1 C6 C5 47.6(3) . . . . ?
 C7 O1 C6 C1 -135.55(19) . . . . ?
 C7 C12 C11 C10 -0.3(3) . . . . ?
 C40 C39 C38 C37 1.1(4) . . . . ?
 C40 C41 C42 O2 178.9(2) . . . . ?
 C40 C41 C42 C37 -0.1(3) . . . . ?
 C55 P4 C37 C38 100.9(2) . . . . ?
 C55 P4 C37 C42 -79.25(19) . . . . ?
 C55 P4 C49 C50 7.8(2) . . . . ?
 C55 P4 C49 C54 -176.06(18) . . . . ?
 C55 C60 C59 C58 2.0(5) . . . . ?
 C55 C56 C57 C58 1.5(5) . . . . ?
 C57 C56 C55 P4 177.6(2) . . . . ?
 C57 C56 C55 C60 0.2(4) . . . . ?
 C34 C33 C32 C31 -0.2(4) . . . . ?
 C62 C63 C64 C65 0.0(4) . . . . ?
 C5 S1 C8 C9 -150.07(19) . . . . ?
 C5 S1 C8 C7 32.99(19) . . . . ?
 C5 C4 C3 C2 3.4(4) . . . . ?
 C21 C20 C19 P1 -174.51(18) . . . . ?
 C21 C20 C19 C24 1.6(3) . . . . ?
 C12 P2 C25 C26 -111.3(2) . . . . ?
 C12 P2 C25 C30 71.47(19) . . . . ?
 C12 P2 C31 C32 -137.74(18) . . . . ?
 C12 P2 C31 C36 38.66(19) . . . . ?
 C12 C11 C10 C9 -0.7(4) . . . . ?
 C27 C26 C25 P2 -178.51(18) . . . . ?
 C27 C26 C25 C30 -1.3(3) . . . . ?
 C27 C28 C29 C30 -0.8(4) . . . . ?
 C54 C53 C52 C51 -1.5(4) . . . . ?
 C19 P1 C13 C18 26.4(2) . . . . ?
 C19 P1 C13 C14 -157.04(18) . . . . ?
 C19 P1 C1 C2 79.92(19) . . . . ?
 C19 P1 C1 C6 -102.62(18) . . . . ?
 C19 C24 C23 C22 1.1(4) . . . . ?
 C19 C20 C21 C22 -0.3(4) . . . . ?
 C1 P1 C13 C18 128.60(19) . . . . ?
 C1 P1 C13 C14 -54.82(19) . . . . ?
 C1 P1 C19 C24 170.06(17) . . . . ?
 C1 P1 C19 C20 -13.8(2) . . . . ?
 C41 S2 C44 C43 36.15(19) . . . . ?
 C41 S2 C44 C45 -145.6(2) . . . . ?
 C67 P3 C48 C47 -110.4(2) . . . . ?
 C67 P3 C48 C43 67.95(17) . . . . ?
 C67 P3 C61 C66 3.1(2) . . . . ?
 C67 P3 C61 C62 -175.22(17) . . . . ?
 C37 P4 C55 C60 -8.0(2) . . . . ?
 C37 P4 C55 C56 174.73(19) . . . . ?
 C37 P4 C49 C50 110.0(2) . . . . ?
 C37 P4 C49 C54 -73.88(19) . . . . ?
 C49 P4 C55 C60 93.7(2) . . . . ?
 C49 P4 C55 C56 -83.6(2) . . . . ?
 C49 P4 C37 C38 -0.7(2) . . . . ?
 C49 P4 C37 C42 179.14(18) . . . . ?
 C43 O2 C42 C41 50.1(2) . . . . ?
 C43 O2 C42 C37 -130.9(2) . . . . ?
 C43 C48 C47 C46 0.1(3) . . . . ?
 C3 C4 C5 S1 179.47(18) . . . . ?
 C3 C4 C5 C6 -0.2(3) . . . . ?
 C35 C36 C31 P2 -175.44(19) . . . . ?
 C35 C36 C31 C32 1.0(3) . . . . ?
 C2 C1 C6 O1 -170.54(18) . . . . ?
 C2 C1 C6 C5 6.2(3) . . . . ?
 C44 S2 C41 C40 143.0(2) . . . . ?
 C44 S2 C41 C42 -35.4(2) . . . . ?
 C42 O2 C43 C48 132.36(19) . . . . ?
 C42 O2 C43 C44 -49.4(3) . . . . ?
 C6 O1 C7 C8 -42.0(3) . . . . ?
 C6 O1 C7 C12 140.14(18) . . . . ?
 C6 C1 C2 C3 -2.9(3) . . . . ?
 C61 P3 C48 C47 -8.3(2) . . . . ?
 C61 P3 C48 C43 170.09(16) . . . . ?
 C61 P3 C67 C68 100.88(17) . . . . ?
 C61 P3 C67 C72 -74.97(19) . . . . ?
 C61 C66 C65 C64 -0.4(4) . . . . ?
 C31 P2 C25 C26 -13.3(2) . . . . ?
 C31 P2 C25 C30 169.48(18) . . . . ?
 C31 P2 C12 C7 61.51(16) . . . . ?
 C31 P2 C12 C11 -117.5(2) . . . . ?
 C31 C36 C35 C34 -0.8(4) . . . . ?
 C10 C9 C8 S1 -175.52(18) . . . . ?
 C10 C9 C8 C7 1.4(3) . . . . ?

