TITL MRMNAN in C2/c
CELL 0.71073 46.8743 13.1 21.7852 90 105.208 90
ZERR 8 0.0016 0.0004 0.0007 0 0.002 0
LATT 7
SYMM -X,+Y,0.5-Z
 
SFAC C H Cl O P Pt S
UNIT 596 456 40 16 32 8 16
 
L.S. 4
PLAN  20
TEMP 22.85
MORE -1
BOND $H
CONF
fmap 2
acta 52
REM <HKL>C:/Users/stephen/Desktop/MRMNAN/MRMNAN.hkl</HKL>
 
WGHT    0.035300   13.128501
FVAR       0.02611   0.54443
PT3   6    0.370987    0.767341    0.337824    11.00000    0.01288    0.01207 =
         0.01109    0.00008    0.00387    0.00011
CL4   3    0.471109    0.410475    0.262492    11.00000    0.11602    0.10677 =
         0.03899   -0.01557    0.01944   -0.03423
CL6   3    0.491337    0.155186    0.413775    11.00000    0.08451    0.04009 =
         0.04522   -0.00914    0.01290   -0.00966
CL12  3    0.249313    0.003228    0.477890    11.00000    0.03751    0.06663 =
         0.05730    0.01885    0.01905    0.01310
CL16  3    0.271515    0.127106    0.389597    11.00000    0.04209    0.04224 =
         0.04751    0.00507    0.01652    0.01004
S19   7    0.351490    1.211569    0.421586    11.00000    0.02872    0.01519 =
         0.02444   -0.00274    0.00923    0.00273
P25   5    0.330094    0.856203    0.278350    11.00000    0.01420    0.01650 =
         0.01186    0.00075    0.00303    0.00134
S30   7    0.494724    0.559547    0.411462    11.00000    0.01708    0.02087 =
         0.02707    0.00178    0.00428    0.00521
P36   5    0.374483    0.804483    0.443869    11.00000    0.01370    0.01381 =
         0.01138    0.00037    0.00355    0.00049
P37   5    0.371670    0.589629    0.331709    11.00000    0.01625    0.01293 =
         0.01383   -0.00093    0.00448   -0.00110
P43   5    0.409821    0.830068    0.301213    11.00000    0.01516    0.01323 =
         0.01500    0.00161    0.00636    0.00081
O3    4    0.343489    0.990513    0.396380    11.00000    0.01756    0.01559 =
         0.01420    0.00098    0.00384   -0.00081
C7    1    0.448910    0.649599    0.536667    11.00000    0.02054    0.04048 =
         0.02504    0.00612    0.00755    0.01159
AFIX  43
H7    2    0.467205    0.637127    0.529016    11.00000   -1.20000
AFIX   0
O10   4    0.436524    0.640602    0.336702    11.00000    0.01847    0.01473 =
         0.01719    0.00263    0.00421    0.00061
C15   1    0.457768    0.408742    0.431358    11.00000    0.02801    0.01767 =
         0.01978    0.00202   -0.00013    0.00464
AFIX  43
H15   2    0.474739    0.375026    0.453965    11.00000   -1.20000
AFIX   0
C18   1    0.442489    0.609967    0.590349    11.00000    0.02816    0.03357 =
         0.02060    0.00707    0.00340    0.01313
AFIX  43
H18   2    0.456431    0.570791    0.618941    11.00000   -1.20000
AFIX   0
C20   1    0.292361    0.776916    0.524616    11.00000    0.02122    0.03568 =
         0.02704    0.00793    0.01354    0.00503
AFIX  43
H20   2    0.276212    0.768759    0.541464    11.00000   -1.20000
AFIX   0
C22   1    0.273908    0.916294    0.292790    11.00000    0.01806    0.05208 =
         0.03107   -0.00741    0.00516    0.00426
AFIX  43
H22   2    0.279514    0.983222    0.287755    11.00000   -1.20000
AFIX   0
C2    1    0.407798    0.652308    0.143807    11.00000    0.05250    0.02490 =
         0.02345   -0.00312    0.01379    0.00379
AFIX  43
H2    2    0.394605    0.607230    0.117997    11.00000   -1.20000
AFIX   0
C1    1    0.293646    0.805213    0.153895    11.00000    0.02598    0.03684 =
         0.01802    0.00048    0.00232   -0.00607
AFIX  43
H1    2    0.278087    0.795831    0.172440    11.00000   -1.20000
AFIX   0
C12   1    0.289430    0.785671    0.089387    11.00000    0.03981    0.04332 =
         0.01748   -0.00150   -0.00153   -0.01032
AFIX  43
H12   2    0.271144    0.762578    0.065353    11.00000   -1.20000
AFIX   0
 
C3    1    0.500000    0.486509    0.250000    10.50000    0.10637    0.05674 =
         0.02441    0.00000    0.01297    0.00000
AFIX  23
H     2    0.507510    0.530015    0.286719    10.50000   -1.20000
HA    2    0.492490    0.530013    0.213280    10.50000   -1.20000
AFIX   0
 
C4    1    0.329754    1.164333    0.232208    11.00000    0.03713    0.02204 =
         0.02263    0.00873    0.00908    0.01017
AFIX  43
H4    2    0.326577    1.203099    0.195265    11.00000   -1.20000
AFIX   0
C23   1    0.309365    0.435867    0.439244    11.00000    0.04996    0.02473 =
         0.05901    0.00975    0.04057    0.00347
AFIX  43
H23   2    0.296837    0.407068    0.461257    11.00000   -1.20000
AFIX   0
C27   1    0.412463    0.956800    0.519972    11.00000    0.02077    0.02225 =
         0.01820   -0.00062    0.00272   -0.00159
AFIX  43
H27   2    0.424805    0.904483    0.540203    11.00000   -1.20000
AFIX   0
C33   1    0.369662    0.434984    0.237249    11.00000    0.02563    0.02032 =
         0.01904   -0.00269    0.00850    0.00061
AFIX  43
H33   2    0.385410    0.403483    0.265998    11.00000   -1.20000
AFIX   0
C36   1    0.314503    0.846148    0.551648    11.00000    0.02699    0.03291 =
         0.01811    0.00018    0.01074    0.00549
AFIX  43
H36   2    0.312932    0.885536    0.586128    11.00000   -1.20000
AFIX   0
C39   1    0.387081    0.933286    0.471665    11.00000    0.01751    0.01582 =
         0.01462   -0.00049    0.00592   -0.00086
C41   1    0.300778    0.441280    0.373694    11.00000    0.03167    0.02933 =
         0.05935    0.00597    0.02312   -0.00460
AFIX  43
H41   2    0.282429    0.415970    0.351534    11.00000   -1.20000
AFIX   0
C48   1    0.410714    0.966135    0.280636    11.00000    0.01555    0.01622 =
         0.02252    0.00323    0.00817    0.00087
C49   1    0.323062    0.527736    0.149819    11.00000    0.03168    0.02858 =
         0.02098   -0.00090   -0.00184   -0.00410
AFIX  43
H49   2    0.307437    0.559138    0.120668    11.00000   -1.20000
AFIX   0
C56   1    0.411430    1.000977    0.220528    11.00000    0.02454    0.01905 =
         0.02560    0.00554    0.00912    0.00323
AFIX  43
H56   2    0.411935    0.954149    0.188746    11.00000   -1.20000
AFIX   0
C62   1    0.336606    0.473351    0.471965    11.00000    0.06120    0.02074 =
         0.03453    0.00364    0.03135    0.00313
AFIX  43
H62   2    0.342536    0.468873    0.516099    11.00000   -1.20000
AFIX   0
C63   1    0.483733    0.688611    0.405777    11.00000    0.01767    0.01747 =
         0.01874    0.00263    0.00735    0.00266
C65   1    0.255815    0.717627    0.304246    11.00000    0.03680    0.07797 =
         0.03945   -0.00301    0.01099   -0.03247
AFIX  43
H65   2    0.249532    0.650851    0.307019    11.00000   -1.20000
AFIX   0
C68   1    0.394270    0.687963    0.558903    11.00000    0.02191    0.02784 =
         0.02018    0.00876    0.00846    0.00643
AFIX  43
H68   2    0.376032    0.700601    0.566794    11.00000   -1.20000
AFIX   0
C69   1    0.502745    0.766422    0.436408    11.00000    0.01441    0.02551 =
         0.02054    0.00096    0.00367   -0.00033
AFIX  43
H69   2    0.521223    0.750542    0.462937    11.00000   -1.20000
AFIX   0
C72   1    0.245994    0.895946    0.301989    11.00000    0.01754    0.09209 =
         0.04883   -0.02039    0.01010    0.00312
AFIX  43
H72   2    0.233381    0.949730    0.304389    11.00000   -1.20000
AFIX   0
C75   1    0.333762    0.435030    0.135327    11.00000    0.03792    0.03020 =
         0.01695   -0.00566    0.00541   -0.01120
AFIX  43
H75   2    0.325309    0.403650    0.096522    11.00000   -1.20000
AFIX   0
C82   1    0.399957    0.702672    0.193595    11.00000    0.02944    0.01925 =
         0.02095   -0.00004    0.00962    0.00171
AFIX  43
H82   2    0.381557    0.690692    0.200840    11.00000   -1.20000
AFIX   0
C84   1    0.459770    0.503232    0.403990    11.00000    0.02007    0.01689 =
         0.01762    0.00020    0.00264    0.00209
C88   1    0.415152    0.628981    0.601284    11.00000    0.03190    0.03529 =
         0.02278    0.01384    0.01187    0.01052
AFIX  43
H88   2    0.410742    0.602093    0.637230    11.00000   -1.20000
AFIX   0
C95   1    0.335705    0.574053    0.208121    11.00000    0.02729    0.01777 =
         0.02168   -0.00172    0.00275   -0.00038
AFIX  43
H95   2    0.328605    0.636984    0.217266    11.00000   -1.20000
AFIX   0
C97   1    0.319464    0.484468    0.340595    11.00000    0.02456    0.02182 =
         0.03640    0.00216    0.01321   -0.00256
AFIX  43
H97   2    0.313529    0.487007    0.296401    11.00000   -1.20000
AFIX   0
 
C103  1    0.278805    0.023708    0.443496    11.00000    0.02841    0.04009 =
         0.03682   -0.00043    0.00635    0.00754
AFIX  23
H10A  2    0.282084   -0.037569    0.421298    11.00000   -1.20000
H10B  2    0.296668    0.037581    0.476760    11.00000   -1.20000
AFIX   0
 
C106  1    0.338980    0.857024    0.527587    11.00000    0.02267    0.02635 =
         0.01513   -0.00047    0.00626    0.00097
AFIX  43
H106  2    0.353848    0.902731    0.546654    11.00000   -1.20000
AFIX   0
C108  1    0.466098    0.891627    0.386992    11.00000    0.02013    0.01740 =
         0.02684    0.00047    0.00696   -0.00106
AFIX  43
H108  2    0.460477    0.959715    0.380683    11.00000   -1.20000
AFIX   0
C109  1    0.358841    0.527729    0.253072    11.00000    0.02054    0.01578 =
         0.01499   -0.00162    0.00646   -0.00303
C111  1    0.446784    0.815709    0.356572    11.00000    0.01580    0.01662 =
         0.01835    0.00292    0.00828    0.00098
C121  1    0.404750    0.417635    0.393818    11.00000    0.02455    0.01675 =
         0.02078    0.00080    0.00259   -0.00234
AFIX  43
H121  2    0.386440    0.387778    0.390880    11.00000   -1.20000
AFIX   0
C124  1    0.294476    0.719777    0.472137    11.00000    0.01891    0.02819 =
         0.03249    0.00035    0.01006   -0.00199
AFIX  43
H124  2    0.279673    0.673534    0.453560    11.00000   -1.20000
AFIX   0
C128  1    0.411395    1.105207    0.207595    11.00000    0.02973    0.02504 =
         0.03907    0.01617    0.01417    0.00501
AFIX  43
H128  2    0.411478    1.127610    0.167134    11.00000   -1.20000
AFIX   0
C131  1    0.339075    0.835860    0.096512    11.00000    0.03587    0.04190 =
         0.01864    0.00254    0.01096    0.00724
AFIX  43
H131  2    0.354339    0.847380    0.077380    11.00000   -1.20000
AFIX   0
C133  1    0.430180    0.365283    0.424581    11.00000    0.02991    0.01397 =
         0.02439    0.00379    0.00300    0.00086
AFIX  43
H133  2    0.428703    0.300409    0.440812    11.00000   -1.20000
AFIX   0
C137  1    0.284044    0.736459    0.296865    11.00000    0.02579    0.04342 =
         0.02657    0.00210    0.00487   -0.01185
AFIX  43
H137  2    0.296696    0.682213    0.295745    11.00000   -1.20000
AFIX   0
C140  1    0.435198    0.669565    0.132951    11.00000    0.05653    0.03665 =
         0.02394    0.00215    0.02154    0.01949
AFIX  43
H140  2    0.440460    0.635650    0.100045    11.00000   -1.20000
AFIX   0
C142  1    0.346953    0.523981    0.372746    11.00000    0.02592    0.01283 =
         0.02468   -0.00125    0.01290   -0.00142
C143  1    0.312066    0.800158    0.060659    11.00000    0.04784    0.03579 =
         0.01338   -0.00099    0.00527    0.00208
AFIX  43
H143  2    0.309199    0.786068    0.017626    11.00000   -1.20000
AFIX   0
C146  1    0.355273    0.517831    0.439341    11.00000    0.04328    0.01721 =
         0.02400   -0.00267    0.01660   -0.00270
AFIX  43
H146  2    0.373466    0.543764    0.461952    11.00000   -1.20000
AFIX   0
C149  1    0.327164    1.058791    0.227894    11.00000    0.03104    0.02193 =
         0.01622    0.00227    0.00442    0.00731
AFIX  43
H149  2    0.321932    1.028259    0.187963    11.00000   -1.20000
AFIX   0
C169  1    0.419446    1.057842    0.538099    11.00000    0.02244    0.02660 =
         0.02101   -0.00410    0.00028   -0.00577
AFIX  43
H169  2    0.436400    1.072153    0.570231    11.00000   -1.20000
AFIX   0
C173  1    0.332254    0.997186    0.282349    11.00000    0.01715    0.01701 =
         0.01853    0.00213    0.00479    0.00416
C175  1    0.405881    0.514983    0.366839    11.00000    0.02024    0.01450 =
         0.01455   -0.00124    0.00361    0.00048
C180  1    0.318853    0.732128    0.447552    11.00000    0.01690    0.02105 =
         0.02208   -0.00097    0.00672    0.00146
AFIX  43
H180  2    0.320023    0.694360    0.412147    11.00000   -1.20000
AFIX   0
C182  1    0.341542    0.799995    0.474961    11.00000    0.01509    0.01773 =
         0.01325    0.00242    0.00417    0.00353
C186  1    0.337007    1.212560    0.290814    11.00000    0.02896    0.01685 =
         0.02804    0.00511    0.01047    0.00651
AFIX  43
H186  2    0.338741    1.283247    0.293438    11.00000   -1.20000
AFIX   0
 
C187  1    0.492373    0.142912    0.334397    11.00000    0.05991    0.09577 =
         0.04777    0.02708    0.01780    0.01614
PART 1
AFIX  23
H18A  2    0.497339    0.208487    0.319273   -21.00000   -1.20000
H18B  2    0.472874    0.123938    0.308790   -21.00000   -1.20000
AFIX  23
PART 0
PART 2
H18C  2    0.477430    0.094568    0.312744    21.00000   -1.20000
H18D  2    0.488116    0.208299    0.313061    21.00000   -1.20000
AFIX   0
 
PART 0
C190  1    0.456177    0.714444    0.367794    11.00000    0.01613    0.01590 =
         0.01745   -0.00032    0.00771   -0.00068
C193  1    0.446890    0.787951    0.220242    11.00000    0.02531    0.03015 =
         0.02187    0.00378    0.01209    0.00396
AFIX  43
H193  2    0.460017    0.833957    0.245379    11.00000   -1.20000
AFIX   0
C211  1    0.369256    1.014300    0.442873    11.00000    0.01569    0.01757 =
         0.01452   -0.00053    0.00553   -0.00137
C214  1    0.427888    0.708315    0.494022    11.00000    0.02236    0.03021 =
         0.01850    0.00659    0.00772    0.00670
AFIX  43
H214  2    0.432336    0.734429    0.457924    11.00000   -1.20000
AFIX   0
C215  1    0.357082    0.389196    0.178776    11.00000    0.03721    0.02233 =
         0.02170   -0.00671    0.01325   -0.00372
AFIX  43
H215  2    0.364439    0.327174    0.168854    11.00000   -1.20000
AFIX   0
C219  1    0.293321    0.836150    0.291174    11.00000    0.01595    0.03664 =
         0.01411   -0.00198    0.00252   -0.00193
C222  1    0.341658    1.153774    0.345667    11.00000    0.02140    0.01643 =
         0.02074   -0.00037    0.00751    0.00381
C227  1    0.320972    0.838737    0.191058    11.00000    0.02205    0.01813 =
         0.01353    0.00156    0.00329    0.00336
C230  1    0.454743    0.737115    0.170938    11.00000    0.03367    0.04585 =
         0.02878    0.00616    0.02140    0.01411
AFIX  43
H230  2    0.473144    0.748637    0.163583    11.00000   -1.20000
AFIX   0
C232  1    0.409345    1.038247    0.327315    11.00000    0.02111    0.01914 =
         0.02690   -0.00031    0.00903    0.00191
AFIX  43
H232  2    0.407967    1.016627    0.367098    11.00000   -1.20000
AFIX   0
C239  1    0.343420    0.854529    0.161110    11.00000    0.02348    0.03223 =
         0.01743    0.00142    0.00553    0.00322
AFIX  43
H239  2    0.361715    0.878072    0.184817    11.00000   -1.20000
AFIX   0
C244  1    0.411235    1.175479    0.255154    11.00000    0.02442    0.01694 =
         0.05519    0.00830    0.01323    0.00488
AFIX  43
H244  2    0.411935    1.245009    0.247053    11.00000   -1.20000
AFIX   0
C250  1    0.401393    1.136990    0.508739    11.00000    0.02932    0.01969 =
         0.02373   -0.00626    0.00863   -0.00740
AFIX  43
H250  2    0.406123    1.204148    0.521162    11.00000   -1.20000
AFIX   0
C252  1    0.339251    1.047917    0.340969    11.00000    0.01585    0.01744 =
         0.01628    0.00209    0.00618    0.00388
C255  1    0.434128    0.553164    0.370364    11.00000    0.02153    0.01264 =
         0.01453    0.00015    0.00560    0.00206
C260  1    0.400557    0.728468    0.504365    11.00000    0.02073    0.01385 =
         0.01325   -0.00021    0.00454    0.00052
C261  1    0.419411    0.770349    0.232249    11.00000    0.02087    0.01708 =
         0.01533    0.00369    0.00761    0.00511
C264  1    0.493699    0.867404    0.426721    11.00000    0.02040    0.02219 =
         0.02750   -0.00048    0.00462   -0.00383
AFIX  43
H264  2    0.506199    0.919326    0.446966    11.00000   -1.20000
AFIX   0
C267  1    0.376046    1.115226    0.460364    11.00000    0.02267    0.01609 =
         0.01879   -0.00246    0.00832   -0.00077
C279  1    0.410041    1.142152    0.314307    11.00000    0.02511    0.01799 =
         0.04262   -0.00402    0.01048    0.00156
AFIX  43
H279  2    0.409695    1.189481    0.345921    11.00000   -1.20000
AFIX   0
C281  1    0.237164    0.798263    0.307443    11.00000    0.01988    0.11473 =
         0.04468   -0.02181    0.01305   -0.02279
AFIX  43
H281  2    0.218542    0.785577    0.313338    11.00000   -1.20000
AFIX   0
 
PART 1
CL1   3    0.519876    0.045120    0.323153   -21.00000    0.05431    0.10710 =
         0.06402    0.03767    0.03516    0.04169
PART 0
PART 2
CL2   3    0.525095    0.103242    0.331177    21.00000    0.03878    0.22857 =
         0.04382    0.00680    0.00916    0.03337
HKLF 4
 
REM  MRMNAN in C2/c
REM R1 =  0.0219 for   16685 Fo > 4sig(Fo)  and  0.0338 for all   19386 data
REM    808 parameters refined using      0 restraints
 
END  
     
WGHT      0.0353     13.1362 

REM Highest difference peak  1.084,  deepest hole -1.067,  1-sigma level  0.256
Q1    1   0.2477 -0.0381  0.4558  11.00000  0.05    1.08
Q2    1   0.3713  0.7057  0.3393  11.00000  0.05    1.07
Q3    1   0.4650  0.4666  0.2513  11.00000  0.05    1.01
Q4    1   0.5058  0.1354  0.3979  11.00000  0.05    0.88
Q5    1   0.2434  0.0256  0.4815  11.00000  0.05    0.85
Q6    1   0.2607  0.1079  0.3630  11.00000  0.05    0.82
Q7    1   0.2502  0.0462  0.4714  11.00000  0.05    0.79
Q8    1   0.2638 -0.0412  0.4964  11.00000  0.05    0.77
Q9    1   0.2533 -0.0022  0.5198  11.00000  0.05    0.76
Q10   1   0.2626  0.0765  0.5005  11.00000  0.05    0.76
Q11   1   0.2907  0.7704  0.4892  11.00000  0.05    0.75
Q12   1   0.2664  0.0205  0.5064  11.00000  0.05    0.73
Q13   1   0.2496  0.0695  0.5220  11.00000  0.05    0.72
Q14   1   0.2581  0.7912  0.5173  11.00000  0.05    0.71
Q15   1   0.4740  0.3740  0.2428  11.00000  0.05    0.71
Q16   1   0.2640  0.0209  0.4645  11.00000  0.05    0.71
Q17   1   0.2568  0.7448  0.4833  11.00000  0.05    0.70
Q18   1   0.2316  0.0259  0.4574  11.00000  0.05    0.69
Q19   1   0.3057  0.7332  0.4611  11.00000  0.05    0.69
Q20   1   0.2595  0.8363  0.5437  11.00000  0.05    0.69

REM The information below was added by Olex2.
REM
REM R1 = 0.0219 for 16685 Fo > 4sig(Fo) and 0.0338 for all 175511 data
REM n/a parameters refined using n/a restraints
REM Highest difference peak 1.08, deepest hole -1.07
REM Mean Shift 0, Max Shift 0.

REM +++ Tabular Listing of Refinement Information +++
REM R1_all = 0.0338
REM R1_gt = 0.0219
REM wR_ref = 0.0716
REM GOOF = 1.232
REM Shift_max = 0
REM Shift_mean = 0
REM Reflections_all = 175511
REM Reflections_gt = 16685
REM Parameters = n/a
REM Hole = -1.07
REM Peak = 1.08
REM Flack = n/a

