TITL MRMNEa in P21 #4
CELL 1.54184 8.669665 15.44173 11.948243 90 99.6997 90
ZERR 2 0.000281 0.000551 0.000428 0 0.0032 0
LATT -1
SYMM -X,0.5+Y,-Z
 
SFAC C H Ag Cl O P S
UNIT 60 92 2 2 2 4 2
 
L.S. 4
PLAN  20
REM reset to P21 #4
BOND
MORE -1
CONF
fmap 2
ACTA
REM <HKL>/Users/melanie/Documents/Research/Thesis/Crystalstructures/MRMNE-AgSt
REM BuCl/MRMNEa.hkl</HKL>
 
WGHT    0.108700    1.532400
FVAR       7.10796
AG1   3   -0.169656   -0.249510   -0.338550    11.00000    0.02558    0.01823 =
         0.01778    0.00008    0.00467    0.00268
CL6   4   -0.179708   -0.350927   -0.501747    11.00000    0.05433    0.03295 =
         0.02602   -0.01080   -0.00240    0.01350
P1    6   -0.305484   -0.112336   -0.377630    11.00000    0.02330    0.01360 =
         0.01391   -0.00041    0.00296    0.00094
S1    7   -0.430057   -0.121750    0.066193    11.00000    0.03105    0.03100 =
         0.01836    0.00217    0.01223    0.00656
O6    5   -0.308612   -0.190125   -0.137479    11.00000    0.02514    0.01487 =
         0.01456   -0.00387    0.00239    0.00028
C9    1   -0.378472   -0.108170   -0.153147    11.00000    0.01687    0.00855 =
         0.01850   -0.00517   -0.00420    0.00403
C13   1   -0.392069   -0.067029   -0.258726    11.00000    0.02319    0.01806 =
         0.01871   -0.00481    0.00425    0.00242
C16   1   -0.522540    0.008320   -0.083995    11.00000    0.02632    0.02922 =
         0.01960   -0.00401    0.00349    0.00650
AFIX  43
H16   2   -0.565407    0.032866   -0.025111    11.00000   -1.20000
AFIX   0
C17   1   -0.473842    0.012084   -0.272258    11.00000    0.03076    0.02325 =
         0.01363    0.00641    0.00701    0.00680
AFIX  43
H17   2   -0.485301    0.039567   -0.342432    11.00000   -1.20000
AFIX   0
P2    6   -0.033163   -0.309732   -0.161018    11.00000    0.02242    0.01653 =
         0.01723    0.00075    0.00312    0.00334
C3    1   -0.077443   -0.257461   -0.031254    11.00000    0.02450    0.01265 =
         0.01923   -0.00091    0.00597    0.00166
C5    1   -0.016101   -0.236328    0.175300    11.00000    0.03741    0.02229 =
         0.02542    0.00687    0.00130   -0.00185
C1    1   -0.248536   -0.172639    0.066555    11.00000    0.02204    0.02164 =
         0.01551    0.00191    0.00226   -0.00367
C10   1   -0.150769   -0.187389    0.171541    11.00000    0.03146    0.02271 =
         0.01386   -0.00207    0.00919   -0.00312
AFIX  43
H10   2   -0.176518   -0.164395    0.237935    11.00000   -1.20000
AFIX   0
C2    1    0.014628   -0.269660    0.075053    11.00000    0.03507    0.02771 =
         0.02560   -0.00298   -0.00136    0.00585
AFIX  43
H2    2    0.104347   -0.303203    0.078185    11.00000   -1.20000
AFIX   0
C4    1   -0.210434   -0.205601   -0.033544    11.00000    0.02113    0.00713 =
         0.01864    0.00024    0.00358   -0.00004
C19   1   -0.443975   -0.071074   -0.066093    11.00000    0.02439    0.02871 =
         0.01755   -0.00193    0.00138    0.00416
C20   1   -0.537928    0.050956   -0.186555    11.00000    0.03390    0.02324 =
         0.02548    0.00369    0.00199    0.00975
C6    1    0.089571   -0.251111    0.286833    11.00000    0.05255    0.02616 =
         0.02709   -0.00869   -0.01181   -0.00662
AFIX 137
H6A   2    0.110601   -0.196843    0.325605    11.00000   -1.50000
H6B   2    0.186109   -0.276292    0.273553    11.00000   -1.50000
H6C   2    0.039545   -0.289647    0.332631    11.00000   -1.50000
AFIX   0
C7    1    0.219302   -0.202630   -0.134550    11.00000    0.03388    0.06291 =
         0.05004   -0.00916    0.00650   -0.02124
AFIX 137
H7A   2    0.146163   -0.168468   -0.185560    11.00000   -1.50000
H7B   2    0.323752   -0.190097   -0.146525    11.00000   -1.50000
H7C   2    0.209843   -0.188971   -0.057616    11.00000   -1.50000
AFIX   0
C8    1    0.184870   -0.297739   -0.156530    11.00000    0.02868    0.03721 =
         0.03244    0.00163   -0.00091    0.00128
C11   1   -0.275657   -0.421649   -0.168995    11.00000    0.04550    0.03064 =
         0.03174    0.00119    0.01250   -0.02140
AFIX 137
H11A  2   -0.313076   -0.380882   -0.119132    11.00000   -1.50000
H11B  2   -0.317729   -0.477935   -0.158057    11.00000   -1.50000
H11C  2   -0.308357   -0.403818   -0.246324    11.00000   -1.50000
AFIX   0
C12   1   -0.047076   -0.069938   -0.476327    11.00000    0.04165    0.04043 =
         0.04525    0.00663    0.01880   -0.01042
AFIX 137
H12A  2    0.000607   -0.118633   -0.434002    11.00000   -1.50000
H12B  2    0.032431   -0.029305   -0.488154    11.00000   -1.50000
H12C  2   -0.102223   -0.089343   -0.548421    11.00000   -1.50000
AFIX   0
C14   1   -0.039336   -0.482974   -0.232717    11.00000    0.05829    0.01992 =
         0.03184   -0.00487    0.01005    0.01049
AFIX 137
H14A  2   -0.059225   -0.454486   -0.305132    11.00000   -1.50000
H14B  2   -0.093701   -0.537362   -0.237690    11.00000   -1.50000
H14C  2    0.070996   -0.492917   -0.211281    11.00000   -1.50000
AFIX   0
C15   1   -0.163706   -0.025468   -0.408987    11.00000    0.02818    0.02669 =
         0.02750   -0.00096    0.00876   -0.00923
C18   1   -0.476414   -0.128833   -0.495799    11.00000    0.02903    0.02259 =
         0.01851   -0.00081   -0.00168    0.00274
C1A   1   -0.071757    0.002092   -0.294109    11.00000    0.03578    0.02196 =
         0.04452    0.00295   -0.00318   -0.00187
AFIX 137
H1AA  2   -0.135147    0.039750   -0.256787    11.00000   -1.50000
H1AB  2    0.021416    0.032103   -0.305309    11.00000   -1.50000
H1AC  2   -0.043736   -0.048250   -0.248012    11.00000   -1.50000
AFIX   0
C1B   1   -0.412678   -0.150284   -0.604328    11.00000    0.04165    0.04612 =
         0.00872   -0.00390   -0.00042    0.01169
AFIX 137
H1BA  2   -0.364656   -0.099676   -0.630050    11.00000   -1.50000
H1BB  2   -0.496952   -0.168943   -0.661970    11.00000   -1.50000
H1BC  2   -0.336411   -0.195700   -0.589103    11.00000   -1.50000
AFIX   0
C1C   1   -0.594371   -0.053704   -0.521322    11.00000    0.03247    0.03991 =
         0.02676   -0.00666   -0.00682    0.00502
AFIX 137
H1CA  2   -0.639706   -0.041594   -0.455036    11.00000   -1.50000
H1CB  2   -0.675445   -0.069702   -0.582863    11.00000   -1.50000
H1CC  2   -0.541370   -0.003061   -0.541949    11.00000   -1.50000
AFIX   0
C1D   1   -0.046192   -0.465673   -0.026625    11.00000    0.07539    0.02584 =
         0.02951    0.00802    0.01194    0.00395
AFIX 137
H1DA  2    0.065977   -0.468440   -0.010378    11.00000   -1.50000
H1DB  2   -0.088575   -0.523070   -0.025960    11.00000   -1.50000
H1DC  2   -0.083603   -0.431039    0.029925    11.00000   -1.50000
AFIX   0
C1E   1    0.214838   -0.321708   -0.276033    11.00000    0.03808    0.06829 =
         0.03508   -0.00176    0.02197    0.00510
AFIX 137
H1EA  2    0.185403   -0.380931   -0.292052    11.00000   -1.50000
H1EB  2    0.323909   -0.314449   -0.279489    11.00000   -1.50000
H1EC  2    0.153897   -0.284697   -0.331105    11.00000   -1.50000
AFIX   0
C1F   1   -0.097362   -0.425325   -0.142727    11.00000    0.03745    0.02870 =
         0.02411   -0.00562    0.00951   -0.00416
C1G   1   -0.622118    0.136019   -0.203408    11.00000    0.05411    0.02802 =
         0.02693    0.00205    0.00833    0.01596
AFIX 137
H1GA  2   -0.703316    0.137628   -0.157851    11.00000   -1.50000
H1GB  2   -0.667438    0.142569   -0.281978    11.00000   -1.50000
H1GC  2   -0.549491    0.182311   -0.181185    11.00000   -1.50000
AFIX   0
C1H   1   -0.562133   -0.208120   -0.457141    11.00000    0.04389    0.04072 =
         0.03671    0.00370    0.00117   -0.01294
AFIX 137
H1HA  2   -0.495956   -0.258178   -0.454527    11.00000   -1.50000
H1HB  2   -0.656961   -0.218087   -0.509839    11.00000   -1.50000
H1HC  2   -0.586819   -0.197432   -0.383003    11.00000   -1.50000
AFIX   0
C1I   1   -0.235542    0.052799   -0.475855    11.00000    0.04152    0.02314 =
         0.03106    0.00912    0.00693   -0.00517
AFIX 137
H1IA  2   -0.302313    0.033626   -0.543692    11.00000   -1.50000
H1IB  2   -0.153783    0.088589   -0.495803    11.00000   -1.50000
H1IC  2   -0.295814    0.085519   -0.430222    11.00000   -1.50000
AFIX   0
C1J   1    0.294079   -0.354341   -0.072317    11.00000    0.02423    0.08480 =
         0.05445    0.01931   -0.00110    0.02259
AFIX 137
H1JA  2    0.284495   -0.338385    0.003863    11.00000   -1.50000
H1JB  2    0.400219   -0.345955   -0.083322    11.00000   -1.50000
H1JC  2    0.265887   -0.414115   -0.084776    11.00000   -1.50000
AFIX   0
HKLF 4
 
REM  MRMNEa in P21 #4
REM R1 =  0.0545 for    5661 Fo > 4sig(Fo)  and  0.0563 for all    5818 data
REM    339 parameters refined using      1 restraints
 
END  
     
WGHT      0.1089      1.4920 

REM Highest difference peak  0.878,  deepest hole -1.777,  1-sigma level  0.142
Q1    1  -0.2418 -0.2841 -0.2924  11.00000  0.05    0.88
Q2    1  -0.2607 -0.2440 -0.4037  11.00000  0.05    0.80
Q3    1  -0.1074 -0.2510 -0.4166  11.00000  0.05    0.80
Q4    1  -0.0977 -0.2151 -0.3828  11.00000  0.05    0.75
Q5    1  -0.2361 -0.2105 -0.2955  11.00000  0.05    0.71
Q6    1  -0.0857 -0.2745 -0.2580  11.00000  0.05    0.66
Q7    1  -0.0778 -0.2484 -0.2799  11.00000  0.05    0.65
Q8    1  -0.3524 -0.3240 -0.4044  11.00000  0.05    0.61
Q9    1  -0.1763 -0.3235 -0.4031  11.00000  0.05    0.59
Q10   1   0.0051 -0.2505 -0.3194  11.00000  0.05    0.57
Q11   1  -0.0592 -0.1247 -0.5323  11.00000  0.05    0.57
Q12   1   0.0294 -0.2821 -0.4202  11.00000  0.05    0.56
Q13   1  -0.2036 -0.1163 -0.3174  11.00000  0.05    0.55
Q14   1  -0.0061 -0.2732 -0.4520  11.00000  0.05    0.54
Q15   1  -0.1456 -0.2456 -0.2208  11.00000  0.05    0.53
Q16   1  -0.0257 -0.1145 -0.1600  11.00000  0.05    0.51
Q17   1   0.0269 -0.1197 -0.3756  11.00000  0.05    0.51
Q18   1  -0.3976 -0.2395 -0.2734  11.00000  0.05    0.49
Q19   1   0.0579 -0.2214 -0.4027  11.00000  0.05    0.48
Q20   1   0.0900 -0.5444 -0.2736  11.00000  0.05    0.48

REM The information below was added by Olex2.
REM
REM R1 = 0.0545 for 5661 Fo > 4sig(Fo) and 0.0563 for all 12471 data
REM n/a parameters refined using n/a restraints
REM Highest difference peak 0.88, deepest hole -1.78
REM Mean Shift 0, Max Shift 0.001.

REM +++ Tabular Listing of Refinement Information +++
REM R1_all = 0.0563
REM R1_gt = 0.0545
REM wR_ref = 0.1618
REM GOOF = 1.138
REM Shift_max = 0.001
REM Shift_mean = 0
REM Reflections_all = 12471
REM Reflections_gt = 5661
REM Parameters = n/a
REM Hole = -1.78
REM Peak = 0.88
REM Flack = -0.016(13)

