####################################################################### 
# 
# This file contains crystal structure data downloaded from the 
# Cambridge Structural Database (CSD) hosted by the Cambridge 
# Crystallographic Data Centre (CCDC).
# 
# Full information about CCDC data access policies and citation 
# guidelines are available at http://www.ccdc.cam.ac.uk/. 
# 
# Audit and citation data items have may been added by the CCDC. 
# Please retain this information to preserve the provenance of 
# this file and to allow appropriate attribution of the data. 
# 
#######################################################################

data_Compound_4
_audit_block_doi                 10.5517/cc6l2sm
_database_code_depnum_ccdc_archive 'CCDC 196130'
loop_
_citation_id
_citation_doi
_citation_year
1 10.1002/anie.200390330 2003
_audit_update_record             
;
2002-10-24 deposited with the CCDC.
2014-12-02 downloaded from the CCDC.
;


_chemical_formula_sum            'C47 H46 Cl2 O2 P2 Pt1'
_chemical_formula_moiety         ?
_chemical_formula_weight         970.82
_chemical_melting_point          ?

_symmetry_cell_setting           orthorhombic
_symmetry_space_group_name_H-M   P_b_n_21
_symmetry_space_group_name_Hall  p_2c_-2ab

loop_
_symmetry_equiv_pos_as_xyz
+x,+y,+z
-x,-y,1/2+z
1/2-x,1/2+y,+z
1/2+x,1/2-y,1/2+z

_cell_length_a                   13.1670(10)
_cell_length_b                   17.3690(10)
_cell_length_c                   17.735(2)
_cell_angle_alpha                90.00000
_cell_angle_beta                 90.00000
_cell_angle_gamma                90.00000
_cell_volume                     4056.0(6)
_cell_formula_units_Z            4

_exptl_crystal_density_diffrn    2.173
_exptl_crystal_density_meas      ?
_exptl_crystal_density_method    ?
_diffrn_radiation_type           'Cu K\a'
_diffrn_radiation_wavelength     1.5418

_cell_measurement_reflns_used    23
_cell_measurement_theta_min      35.06
_cell_measurement_theta_max      36.74
_cell_measurement_temperature    293

_exptl_absorpt_coefficient_mu    17.028
_exptl_crystal_description       ?
_exptl_crystal_size_max          0.60
_exptl_crystal_size_mid          0.25
_exptl_crystal_size_min          0.15
_exptl_crystal_size_rad          ?
_exptl_crystal_colour            ?

_diffrn_measurement_device_type  'Enraf-Nonius CAD4'
_diffrn_measurement_method       \w/2\q
_diffrn_detector_area_resol_mean ?

_exptl_absorpt_correction_type   \Y-scans
_exptl_absorpt_process_details   ?
_exptl_absorpt_correction_T_min  0.424
_exptl_absorpt_correction_T_max  0.990

_diffrn_reflns_number            ?
_reflns_number_total             4446
_reflns_Friedel_coverage         ?
_reflns_number_gt                4446
_reflns_threshold_expression     'Fobs > 4.00 sig(Fobs)'

_diffrn_reflns_theta_max         75.
_diffrn_reflns_theta_full        ?
_diffrn_measured_fraction_theta_max ?
_diffrn_measured_fraction_theta_full ?
_diffrn_reflns_av_R_equivalents  ?
_diffrn_reflns_limit_h_min       0
_diffrn_reflns_limit_h_max       16
_diffrn_reflns_limit_k_min       0
_diffrn_reflns_limit_k_max       21
_diffrn_reflns_limit_l_min       0
_diffrn_reflns_limit_l_max       21
_diffrn_standards_number         2
_diffrn_standards_interval_count ?
_diffrn_standards_interval_time  60 #<< do not append units
_diffrn_standards_decay_%        0 #<< do not append %


_refine_ls_structure_factor_coef F
_refine_ls_R_factor_gt           .059
_refine_ls_wR_factor_ref         .068
_refine_ls_goodness_of_fit_ref   1.064
_refine_ls_number_reflns         3641
_refine_ls_number_parameters     488
_refine_ls_weighting_scheme      calc
_refine_ls_weighting_details     
'1/[25.0 + 0.01*(\s(Fobs)^2^) + 0.01/(\s(Fobs))]'
_refine_ls_hydrogen_treatment    noref
_refine_ls_shift/su_max          .082
_refine_diff_density_min         -1.682
_refine_diff_density_max         3.212

_refine_ls_extinction_method     Zachariasen
_refine_ls_extinction_coef       191(38)
_refine_ls_abs_structure_details ?
_refine_ls_abs_structure_Flack   ?


# 3. Information for the "methods" section
#-----------------------------------------

_computing_data_collection       'Enraf-Nonius CAD4 software'
_computing_cell_refinement       'local program'
_computing_data_reduction        'xtal ADDREF'
_computing_structure_solution    DIRDIF
_computing_structure_refinement  'xtal CRYLSQ'
_computing_molecular_graphics    PLATON
_computing_publication_material  'xtal BONDLA CIFIO'


# 4. Supplementary data for validation and tables
#------------------------------------------------

loop_
_atom_type_symbol
_atom_type_description
_atom_type_oxidation_number
_atom_type_number_in_cell
_atom_type_scat_dispersion_real
_atom_type_scat_dispersion_imag
_atom_type_scat_source
C ? 0 184 .017 .009 'Int Tables Vol IV Tables 2.2B and 2.3.1'
H ? 0 216 0 0 'Int Tables Vol IV Tables 2.2B and 2.3.1'
Cl ? 0 16 .348 .702 'Int Tables Vol IV Tables 2.2B and 2.3.1'
O ? 0 16 .047 .032 'Int Tables Vol IV Tables 2.2B and 2.3.1'
P ? 0 16 .283 .434 'Int Tables Vol IV Tables 2.2B and 2.3.1'
Pt ? 0 8 -5.233 6.925 'Int Tables Vol IV Tables 2.2B and 2.3.1'

loop_
_atom_site_label
_atom_site_fract_x
_atom_site_fract_y
_atom_site_fract_z
_atom_site_U_iso_or_equiv
_atom_site_adp_type
_atom_site_calc_flag
_atom_site_calc_attached_atom
_atom_site_occupancy
_atom_site_disorder_assembly
_atom_site_disorder_group
Pt1 .12825(4) .10758(4) -.0022(4) .0325(3) Uani ? ? 1.00000 ? ?
Cl1 .0686(4) .1962(3) -.0873(5) .044(3) Uani ? ? 1.00000 ? ?
Cl2 .1903(4) .0235(3) .0899(5) .052(3) Uani ? ? 1.00000 ? ?
P1 -.0377(3) .0770(3) .0289(4) .033(2) Uani ? ? 1.00000 ? ?
P2 .2934(3) .1467(3) -.0169(4) .029(2) Uani ? ? 1.00000 ? ?
C1 -.1073(14) .1685(10) .0499(11) .038(10) Uani ? ? 1.00000 ? ?
C2 -.2054(12) .1813(9) .0247(11) .049(11) Uani ? ? 1.00000 ? ?
C3 -.2517(15) .2490(11) .0339(12) .042(10) Uani ? ? 1.00000 ? ?
C4 -.1976(13) .3083(7) .0689(13) .047(11) Uani ? ? 1.00000 ? ?
C5 -.0972(14) .2998(11) .0958(12) .042(10) Uani ? ? 1.00000 ? ?
C6 -.0343(15) .3673(10) .1245(12) .038(10) Uani ? ? 1.00000 ? ?
C7 .0732(12) .3440(8) .1096(5) .047(12) Uani ? ? 1.00000 ? ?
C8 .1127(13) .2668(10) .1396(10) .032(8) Uani ? ? 1.00000 ? ?
O1 .0341(10) .2089(8) .1244(9) .044(8) Uani ? ? 1.00000 ? ?
C9 .1386(11) .2608(5) .2243(9) .038(9) Uani ? ? 1.00000 ? ?
C10 .2475(15) .2817(13) .2460(11) .044(11) Uani ? ? 1.00000 ? ?
C11 .3161(17) .2349(14) .1992(13) .047(13) Uani ? ? 1.00000 ? ?
C12 .4125(14) .2070(12) .2227(7) .042(11) Uani ? ? 1.00000 ? ?
C13 .4722(16) .1608(12) .1749(13) .049(12) Uani ? ? 1.00000 ? ?
C14 .4414(12) .1424(10) .1029(9) .040(10) Uani ? ? 1.00000 ? ?
C15 .3436(12) .1706(12) .0786(10) .034(9) Uani ? ? 1.00000 ? ?
C16 .2902(16) .2147(11) .1289(11) .034(10) Uani ? ? 1.00000 ? ?
O2 .2000(9) .2456(7) .0947(9) .043(7) Uani ? ? 1.00000 ? ?
C17 -.0555(13) .2273(11) .0888(10) .037(9) Uani ? ? 1.00000 ? ?
C18 -.3569(9) .2650(5) .0074(5) .061(12) Uani ? ? 1.00000 ? ?
C19 -.0502(6) .4413(7) .0785(6) .060(14) Uani ? ? 1.00000 ? ?
C20 -.0554(6) .3821(5) .2081(7) .056(13) Uani ? ? 1.00000 ? ?
C21 .2742(6) .3646(8) .2271(5) .059(14) Uani ? ? 1.00000 ? ?
C22 .2565(6) .2701(5) .3298(7) .051(12) Uani ? ? 1.00000 ? ?
C23 .5819(10) .1392(5) .1984(5) .071(17) Uani ? ? 1.00000 ? ?
C31 -.072(2) .0150(17) .1108(16) .051(14) Uani ? ? 1.00000 ? ?
C32 -.1390(17) .0332(7) .1664(13) .054(13) Uani ? ? 1.00000 ? ?
C33 -.1623(14) -.0218(15) .2219(12) .064(16) Uani ? ? 1.00000 ? ?
C34 -.120(2) -.0939(12) .2233(11) .063(15) Uani ? ? 1.00000 ? ?
C35 -.0511(16) -.1099(8) .1691(17) .068(16) Uani ? ? 1.00000 ? ?
C36 -.0260(14) -.0627(10) .1107(10) .049(12) Uani ? ? 1.00000 ? ?
C41 -.1052(13) .0291(9) -.0478(11) .032(9) Uani ? ? 1.00000 ? ?
C42 -.1942(13) -.0136(11) -.0358(7) .039(10) Uani ? ? 1.00000 ? ?
C43 -.2358(11) -.0517(11) -.0917(14) .047(11) Uani ? ? 1.00000 ? ?
C44 -.1946(15) -.0543(11) -.1629(10) .049(12) Uani ? ? 1.00000 ? ?
C45 -.1087(18) -.0142(14) -.1735(8) .056(14) Uani ? ? 1.00000 ? ?
C46 -.0586(10) .0239(13) -.1183(12) .035(11) Uani ? ? 1.00000 ? ?
C51 .3231(14) .2289(10) -.0680(15) .044(12) Uani ? ? 1.00000 ? ?
C52 .306(3) .2286(12) -.1500(18) .09(2) Uani ? ? 1.00000 ? ?
C53 .336(2) .2904(14) -.1909(5) .061(15) Uani ? ? 1.00000 ? ?
C54 .377(2) .3544(12) -.1615(14) .071(17) Uani ? ? 1.00000 ? ?
C55 .383(2) .3595(9) -.0841(14) .071(16) Uani ? ? 1.00000 ? ?
C56 .3585(18) .2981(11) -.0366(5) .051(12) Uani ? ? 1.00000 ? ?
C61 .3728(14) .0733(12) -.0582(10) .038(9) Uani ? ? 1.00000 ? ?
C62 .3383(10) -.0016(15) -.0690(13) .058(14) Uani ? ? 1.00000 ? ?
C63 .3991(16) -.0561(7) -.1030(15) .057(14) Uani ? ? 1.00000 ? ?
C64 .4940(14) -.0365(10) -.1281(12) .053(13) Uani ? ? 1.00000 ? ?
C65 .5288(9) .0384(14) -.1164(13) .064(16) Uani ? ? 1.00000 ? ?
C66 .4756(13) .0961(7) -.0807(14) .055(13) Uani ? ? 1.00000 ? ?
H2 -.24317 .13864 -.00094 .10000 Uiso ? ? 1.00000 ? ?
H4 -.23201 .35909 .07608 .10000 Uiso ? ? 1.00000 ? ?
H71 .08169 .34282 .05365 .10000 Uiso ? ? 1.00000 ? ?
H72 .11747 .38507 .13150 .10000 Uiso ? ? 1.00000 ? ?
H91 .09137 .29589 .25211 .10000 Uiso ? ? 1.00000 ? ?
H92 .12564 .20637 .24012 .10000 Uiso ? ? 1.00000 ? ?
H12 .43795 .22109 .27403 .10000 Uiso ? ? 1.00000 ? ?
H14 .48526 .11069 .06893 .10000 Uiso ? ? 1.00000 ? ?
H181 -.36126 .25762 -.04869 .10000 Uiso ? ? 1.00000 ? ?
H182 -.40586 .22879 .03246 .10000 Uiso ? ? 1.00000 ? ?
H183 -.37629 .31920 .01998 .10000 Uiso ? ? 1.00000 ? ?
H191 -.02992 .43159 .02491 .10000 Uiso ? ? 1.00000 ? ?
H192 -.12336 .45644 .08034 .10000 Uiso ? ? 1.00000 ? ?
H193 -.00752 .48343 .09990 .10000 Uiso ? ? 1.00000 ? ?
H201 -.12896 .39406 .21547 .10000 Uiso ? ? 1.00000 ? ?
H202 -.03727 .33507 .23800 .10000 Uiso ? ? 1.00000 ? ?
H203 -.01339 .42651 .22593 .10000 Uiso ? ? 1.00000 ? ?
H211 .26677 .37297 .17146 .10000 Uiso ? ? 1.00000 ? ?
H212 .22719 .40024 .25454 .10000 Uiso ? ? 1.00000 ? ?
H213 .34571 .37541 .24244 .10000 Uiso ? ? 1.00000 ? ?
H221 .20691 .30423 .35643 .10000 Uiso ? ? 1.00000 ? ?
H222 .24173 .21512 .34252 .10000 Uiso ? ? 1.00000 ? ?
H223 .32703 .28325 .34636 .10000 Uiso ? ? 1.00000 ? ?
H231 .62390 .18689 .20527 .10000 Uiso ? ? 1.00000 ? ?
H232 .58075 .10975 .24701 .10000 Uiso ? ? 1.00000 ? ?
H233 .61407 .10631 .15838 .10000 Uiso ? ? 1.00000 ? ?
H32 -.17046 .08552 .16854 .10000 Uiso ? ? 1.00000 ? ?
H33 -.21518 -.00837 .26027 .10000 Uiso ? ? 1.00000 ? ?
H34 -.13790 -.13244 .26319 .10000 Uiso ? ? 1.00000 ? ?
H35 -.01497 -.16043 .17319 .10000 Uiso ? ? 1.00000 ? ?
H36 .01953 -.08058 .06904 .10000 Uiso ? ? 1.00000 ? ?
H42 -.22911 -.01280 .01438 .10000 Uiso ? ? 1.00000 ? ?
H43 -.29882 -.08245 -.08226 .10000 Uiso ? ? 1.00000 ? ?
H44 -.22847 -.08409 -.20417 .10000 Uiso ? ? 1.00000 ? ?
H45 -.07795 -.01174 -.22496 .10000 Uiso ? ? 1.00000 ? ?
H46 .00963 .04685 -.12853 .10000 Uiso ? ? 1.00000 ? ?
H52 .27176 .18383 -.17456 .10000 Uiso ? ? 1.00000 ? ?
H53 .32718 .28842 -.24686 .10000 Uiso ? ? 1.00000 ? ?
H54 .40649 .39551 -.19452 .10000 Uiso ? ? 1.00000 ? ?
H55 .40306 .40964 -.06061 .10000 Uiso ? ? 1.00000 ? ?
H56 .36648 .30309 .01935 .10000 Uiso ? ? 1.00000 ? ?
H62 .26847 -.01586 -.05169 .10000 Uiso ? ? 1.00000 ? ?
H63 .37307 -.10984 -.10914 .10000 Uiso ? ? 1.00000 ? ?
H64 .53823 -.07543 -.15351 .10000 Uiso ? ? 1.00000 ? ?
H65 .59848 .05079 -.13532 .10000 Uiso ? ? 1.00000 ? ?
H66 .50341 .14906 -.06962 .10000 Uiso ? ? 1.00000 ? ?

loop_
_atom_site_aniso_label
_atom_site_aniso_U_11
_atom_site_aniso_U_22
_atom_site_aniso_U_33
_atom_site_aniso_U_12
_atom_site_aniso_U_13
_atom_site_aniso_U_23
Pt1 .0262(3) .0356(3) .0357(3) -.0023(3) .0009(5) .0001(5)
Cl1 .035(2) .046(3) .051(3) .002(2) -.002(2) .010(2)
Cl2 .039(2) .054(3) .064(3) -.006(2) -.011(2) .019(3)
P1 .030(2) .032(2) .036(2) -.0033(18) -.0014(18) .0024(18)
P2 .0258(17) .039(2) .024(3) -.0025(16) .0006(15) -.0017(16)
C1 .046(11) .038(9) .030(9) .008(8) -.024(8) -.008(7)
C2 .033(9) .046(11) .068(15) .001(8) .011(9) -.004(10)
C3 .044(10) .036(10) .046(10) .006(8) -.008(9) -.000(9)
C4 .030(9) .051(12) .060(13) .001(9) -.003(9) .003(10)
C5 .040(10) .039(10) .046(11) .008(8) .013(9) -.011(9)
C6 .039(10) .022(8) .054(11) .009(7) -.004(9) -.002(8)
C7 .043(11) .042(11) .056(13) .013(9) .003(10) -.012(9)
C8 .031(8) .037(9) .027(8) .002(7) .014(7) -.002(7)
O1 .037(7) .044(8) .050(8) .002(6) -.003(7) -.010(7)
C9 .041(10) .045(10) .027(8) -.015(9) .014(8) -.008(7)
C10 .038(10) .057(13) .036(10) -.005(9) -.003(9) -.007(9)
C11 .035(11) .056(15) .050(13) .012(10) -.020(10) .009(10)
C12 .038(10) .052(12) .037(10) -.008(9) -.008(8) -.005(9)
C13 .050(12) .049(12) .047(12) -.003(10) -.016(10) .010(10)
C14 .030(9) .047(11) .042(11) -.001(8) -.005(8) .012(9)
C15 .024(8) .065(13) .015(7) -.005(8) -.006(6) -.005(8)
C16 .034(10) .033(10) .035(10) -.008(8) -.003(9) .010(8)
O2 .038(7) .045(7) .046(8) .017(6) -.004(6) -.016(6)
C17 .034(9) .059(12) .017(8) -.022(9) .006(7) -.004(8)
C18 .027(8) .075(12) .081(16) .008(8) .025(14) .016(17)
C19 .072(15) .026(10) .082(17) -.003(10) -.016(14) .009(10)
C20 .064(14) .069(15) .033(10) .012(12) -.014(10) -.009(10)
C21 .044(12) .081(17) .051(13) .003(12) .009(10) -.001(12)
C22 .064(14) .051(13) .038(11) -.014(11) -.017(10) .009(9)
C23 .042(12) .072(17) .10(2) .003(12) -.005(13) .016(15)
C31 .036(12) .059(15) .060(17) -.020(11) -.022(12) .013(13)
C32 .073(16) .042(11) .047(12) -.013(12) .009(12) -.010(10)
C33 .052(14) .076(18) .064(15) -.032(13) .013(12) -.007(13)
C34 .058(14) .067(16) .065(14) -.029(13) -.004(13) .014(12)
C35 .059(14) .054(14) .091(19) -.017(12) -.033(14) .009(14)
C36 .059(13) .029(10) .058(13) -.012(9) .007(11) .010(9)
C41 .028(9) .024(8) .042(10) -.002(7) -.013(8) .009(7)
C42 .021(8) .039(10) .058(11) -.006(8) .001(8) -.006(9)
C43 .041(11) .033(10) .066(14) -.016(8) -.009(11) .014(10)
C44 .040(11) .045(12) .063(14) .005(9) -.019(10) -.005(10)
C45 .065(16) .057(14) .047(12) .009(12) .008(12) .003(11)
C46 .031(11) .045(12) .028(10) .008(9) -.003(9) .002(9)
C51 .022(9) .014(8) .097(18) .002(7) .000(10) .011(9)
C52 .06(2) .053(17) .14(3) -.024(14) -.03(2) .05(2)
C53 .077(17) .056(14) .049(13) -.020(13) .005(12) .014(11)
C54 .071(17) .064(15) .078(18) -.011(15) -.001(16) .009(13)
C55 .09(2) .051(13) .074(17) -.034(14) -.023(16) .012(12)
C56 .069(15) .038(10) .046(11) -.013(11) -.022(11) .007(9)
C61 .026(8) .069(12) .018(7) .002(9) -.010(7) .004(8)
C62 .033(10) .091(18) .050(14) -.006(11) -.002(9) -.014(13)
C63 .052(13) .043(12) .076(16) .005(10) -.018(12) -.017(11)
C64 .045(12) .061(15) .053(13) -.005(11) .006(11) -.003(11)
C65 .047(13) .083(19) .061(15) .029(13) -.015(11) .000(13)
C66 .015(8) .083(17) .067(14) .010(10) .001(9) .019(13)


# 5. Molecular Geometry
#----------------------

loop_
_geom_bond_atom_site_label_1
_geom_bond_atom_site_label_2
_geom_bond_site_symmetry_1
_geom_bond_site_symmetry_2
_geom_bond_distance
_geom_bond_publ_flag #<< enter y(es) for value to be published
Pt1 P2 4 4 2.292(4) ?
Pt1 Cl1 4 4 2.294(8) ?
Pt1 P1 4 4 2.316(5) ?
Pt1 Cl2 4 4 2.338(8) ?
P1 C41 4 4 1.82(2) ?
P1 C31 4 4 1.86(3) ?
P1 C1 4 4 1.871(19) ?
P2 C51 4 4 1.74(2) ?
P2 C61 4 4 1.80(2) ?
P2 C15 4 4 1.867(18) ?
C1 C2 4 4 1.39(3) ?
C1 C17 4 4 1.41(3) ?
C2 H2 4 4 1.001(16) ?
C2 C3 4 4 1.33(2) ?
C3 C4 4 4 1.40(3) ?
C3 C18 4 4 1.49(2) ?
C4 H4 4 4 1.001(14) ?
C4 C5 4 4 1.41(3) ?
C5 C17 4 4 1.38(3) ?
C5 C6 4 4 1.52(3) ?
C6 C7 4 4 1.50(2) ?
C6 C20 4 4 1.53(2) ?
C6 C19 4 4 1.54(2) ?
C7 H71 4 4 .998(9) ?
C7 H72 4 4 1.000(14) ?
C7 C8 4 4 1.53(2) ?
C8 O2 4 4 1.45(2) ?
C8 O1 4 4 1.47(2) ?
C8 C9 4 4 1.54(2) ?
O1 C17 4 4 1.38(2) ?
C9 H92 4 4 1.000(9) ?
C9 H91 4 4 1.001(13) ?
C9 C10 4 4 1.53(2) ?
C10 C11 4 4 1.47(3) ?
C10 C22 4 4 1.50(2) ?
C10 C21 4 4 1.52(3) ?
C11 C16 4 4 1.34(3) ?
C11 C12 4 4 1.42(3) ?
C12 H12 4 4 1.002(13) ?
C12 C13 4 4 1.41(3) ?
C13 C14 4 4 1.38(3) ?
C13 C23 4 4 1.55(2) ?
C14 H14 4 4 1.000(16) ?
C14 C15 4 4 1.44(2) ?
C15 C16 4 4 1.37(3) ?
C16 O2 4 4 1.44(2) ?
C18 H183 4 4 1.001(8) ?
C18 H182 4 4 1.004(10) ?
C18 H181 4 4 1.004(9) ?
C19 H193 4 4 .997(10) ?
C19 H192 4 4 .999(9) ?
C19 H191 4 4 1.001(10) ?
C20 H201 4 4 1.000(8) ?
C20 H203 4 4 1.000(9) ?
C20 H202 4 4 1.002(10) ?
C21 H213 4 4 .998(9) ?
C21 H212 4 4 1.001(11) ?
C21 H211 4 4 1.003(9) ?
C22 H221 4 4 1.000(9) ?
C22 H223 4 4 1.001(9) ?
C22 H222 4 4 1.001(8) ?
C23 H232 4 4 1.002(9) ?
C23 H231 4 4 1.003(10) ?
C23 H233 4 4 1.005(10) ?
C31 C32 4 4 1.36(4) ?
C31 C36 4 4 1.48(3) ?
C32 H32 4 4 1.000(14) ?
C32 C33 4 4 1.41(3) ?
C33 H33 4 4 1.00(2) ?
C33 C34 4 4 1.37(3) ?
C34 H34 4 4 1.00(2) ?
C34 C35 4 4 1.35(3) ?
C35 H35 4 4 1.001(16) ?
C35 C36 4 4 1.36(3) ?
C36 H36 4 4 1.000(18) ?
C41 C46 4 4 1.40(3) ?
C41 C42 4 4 1.40(2) ?
C42 H42 4 4 1.003(13) ?
C42 C43 4 4 1.31(3) ?
C43 H43 4 4 1.000(16) ?
C43 C44 4 4 1.38(3) ?
C44 H44 4 4 1.000(19) ?
C44 C45 4 4 1.34(3) ?
C45 H45 4 4 1.000(16) ?
C45 C46 4 4 1.35(3) ?
C46 H46 4 4 1.000(15) ?
C51 C56 4 4 1.40(3) ?
C51 C52 4 4 1.47(4) ?
C52 H52 4 4 1.00(3) ?
C52 C53 4 4 1.35(3) ?
C53 H53 4 4 .999(10) ?
C53 C54 4 4 1.34(3) ?
C54 H54 4 4 1.00(2) ?
C54 C55 4 4 1.38(3) ?
C55 H55 4 4 1.001(18) ?
C55 C56 4 4 1.40(3) ?
C56 H56 4 4 1.001(10) ?
C61 C62 4 4 1.39(3) ?
C61 C66 4 4 1.46(2) ?
C62 H62 4 4 1.001(15) ?
C62 C63 4 4 1.38(3) ?
C63 H63 4 4 1.001(13) ?
C63 C64 4 4 1.37(3) ?
C64 H64 4 4 1.00(2) ?
C64 C65 4 4 1.39(3) ?
C65 H65 4 4 1.000(15) ?
C65 C66 4 4 1.38(3) ?
C66 H66 4 4 1.010(13) ?

loop_
_geom_angle_atom_site_label_1
_geom_angle_atom_site_label_2
_geom_angle_atom_site_label_3
_geom_angle_site_symmetry_1
_geom_angle_site_symmetry_2
_geom_angle_site_symmetry_3
_geom_angle
_geom_angle_publ_flag #<< enter yes for value to be published
P2 Pt1 Cl1 4 4 4 92.9(2) ?
P2 Pt1 P1 4 4 4 171.9(4) ?
P2 Pt1 Cl2 4 4 4 86.2(2) ?
Cl1 Pt1 P1 4 4 4 89.3(2) ?
Cl1 Pt1 Cl2 4 4 4 176.4(3) ?
P1 Pt1 Cl2 4 4 4 91.1(3) ?
C41 P1 C31 4 4 4 101.6(10) ?
C41 P1 C1 4 4 4 107.3(8) ?
C41 P1 Pt1 4 4 4 112.7(7) ?
C31 P1 C1 4 4 4 102.6(11) ?
C31 P1 Pt1 4 4 4 123.0(8) ?
C1 P1 Pt1 4 4 4 108.3(6) ?
C51 P2 C61 4 4 4 103.8(10) ?
C51 P2 C15 4 4 4 102.1(10) ?
C51 P2 Pt1 4 4 4 121.2(7) ?
C61 P2 C15 4 4 4 108.7(8) ?
C61 P2 Pt1 4 4 4 112.8(7) ?
C15 P2 Pt1 4 4 4 107.4(6) ?
C2 C1 C17 4 4 4 119.5(16) ?
C2 C1 P1 4 4 4 121.9(13) ?
C17 C1 P1 4 4 4 118.4(14) ?
H2 C2 C3 4 4 4 118.8(16) ?
H2 C2 C1 4 4 4 119.4(15) ?
C3 C2 C1 4 4 4 121.8(17) ?
C2 C3 C4 4 4 4 118.1(17) ?
C2 C3 C18 4 4 4 123.3(16) ?
C4 C3 C18 4 4 4 118.6(15) ?
H4 C4 C3 4 4 4 118.4(17) ?
H4 C4 C5 4 4 4 118.3(16) ?
C3 C4 C5 4 4 4 123.4(15) ?
C17 C5 C4 4 4 4 116.0(16) ?
C17 C5 C6 4 4 4 121.1(16) ?
C4 C5 C6 4 4 4 122.7(16) ?
C7 C6 C5 4 4 4 104.2(14) ?
C7 C6 C20 4 4 4 112.8(14) ?
C7 C6 C19 4 4 4 105.2(13) ?
C5 C6 C20 4 4 4 110.8(15) ?
C5 C6 C19 4 4 4 113.1(15) ?
C20 C6 C19 4 4 4 110.5(12) ?
H71 C7 H72 4 4 4 109.6(13) ?
H71 C7 C6 4 4 4 106.7(13) ?
H71 C7 C8 4 4 4 106.8(13) ?
H72 C7 C6 4 4 4 106.8(13) ?
H72 C7 C8 4 4 4 106.9(12) ?
C6 C7 C8 4 4 4 119.8(13) ?
O2 C8 O1 4 4 4 106.6(13) ?
O2 C8 C7 4 4 4 107.6(13) ?
O2 C8 C9 4 4 4 110.0(13) ?
O1 C8 C7 4 4 4 107.3(13) ?
O1 C8 C9 4 4 4 106.6(13) ?
C7 C8 C9 4 4 4 118.2(12) ?
C17 O1 C8 4 4 4 122.0(14) ?
H92 C9 H91 4 4 4 109.4(14) ?
H92 C9 C10 4 4 4 108.3(13) ?
H92 C9 C8 4 4 4 107.5(12) ?
H91 C9 C10 4 4 4 108.3(12) ?
H91 C9 C8 4 4 4 107.5(12) ?
C10 C9 C8 4 4 4 115.8(13) ?
C11 C10 C22 4 4 4 115.8(17) ?
C11 C10 C21 4 4 4 104.9(16) ?
C11 C10 C9 4 4 4 107.6(16) ?
C22 C10 C21 4 4 4 109.0(14) ?
C22 C10 C9 4 4 4 106.9(14) ?
C21 C10 C9 4 4 4 112.8(14) ?
C16 C11 C12 4 4 4 114(2) ?
C16 C11 C10 4 4 4 121(2) ?
C12 C11 C10 4 4 4 124.8(19) ?
H12 C12 C13 4 4 4 120.0(18) ?
H12 C12 C11 4 4 4 118.9(17) ?
C13 C12 C11 4 4 4 121.1(16) ?
C14 C13 C12 4 4 4 121.7(18) ?
C14 C13 C23 4 4 4 117.9(16) ?
C12 C13 C23 4 4 4 119.8(17) ?
H14 C14 C13 4 4 4 121.1(16) ?
H14 C14 C15 4 4 4 121.5(15) ?
C13 C14 C15 4 4 4 117.5(16) ?
C16 C15 C14 4 4 4 117.0(16) ?
C16 C15 P2 4 4 4 122.2(14) ?
C14 C15 P2 4 4 4 120.8(13) ?
C11 C16 C15 4 4 4 128(2) ?
C11 C16 O2 4 4 4 120.3(19) ?
C15 C16 O2 4 4 4 111.1(16) ?
C16 O2 C8 4 4 4 121.4(15) ?
O1 C17 C5 4 4 4 120.8(17) ?
O1 C17 C1 4 4 4 118.2(17) ?
C5 C17 C1 4 4 4 120.9(17) ?
H183 C18 H182 4 4 4 109.1(10) ?
H183 C18 H181 4 4 4 109.0(8) ?
H183 C18 C3 4 4 4 110.0(11) ?
H182 C18 H181 4 4 4 108.8(9) ?
H182 C18 C3 4 4 4 110.0(10) ?
H181 C18 C3 4 4 4 110.0(11) ?
H193 C19 H192 4 4 4 109.7(10) ?
H193 C19 H191 4 4 4 109.6(9) ?
H193 C19 C6 4 4 4 109.6(10) ?
H192 C19 H191 4 4 4 109.4(9) ?
H192 C19 C6 4 4 4 109.5(11) ?
H191 C19 C6 4 4 4 109.1(12) ?
H201 C20 H203 4 4 4 109.5(9) ?
H201 C20 H202 4 4 4 109.3(9) ?
H201 C20 C6 4 4 4 109.7(12) ?
H203 C20 H202 4 4 4 109.3(10) ?
H203 C20 C6 4 4 4 109.6(11) ?
H202 C20 C6 4 4 4 109.5(10) ?
H213 C21 H212 4 4 4 109.5(11) ?
H213 C21 H211 4 4 4 109.4(8) ?
H213 C21 C10 4 4 4 109.7(12) ?
H212 C21 H211 4 4 4 109.2(10) ?
H212 C21 C10 4 4 4 109.7(11) ?
H211 C21 C10 4 4 4 109.4(12) ?
H221 C22 H223 4 4 4 109.4(10) ?
H221 C22 H222 4 4 4 109.4(10) ?
H221 C22 C10 4 4 4 109.6(11) ?
H223 C22 H222 4 4 4 109.4(9) ?
H223 C22 C10 4 4 4 109.4(12) ?
H222 C22 C10 4 4 4 109.6(12) ?
H232 C23 H231 4 4 4 109.0(9) ?
H232 C23 H233 4 4 4 108.9(9) ?
H232 C23 C13 4 4 4 110.0(13) ?
H231 C23 H233 4 4 4 108.8(11) ?
H231 C23 C13 4 4 4 110.2(11) ?
H233 C23 C13 4 4 4 109.8(11) ?
C32 C31 C36 4 4 4 118(2) ?
C32 C31 P1 4 4 4 126(2) ?
C36 C31 P1 4 4 4 115.5(18) ?
H32 C32 C31 4 4 4 120(2) ?
H32 C32 C33 4 4 4 120(2) ?
C31 C32 C33 4 4 4 119.4(18) ?
H33 C33 C34 4 4 4 119(2) ?
H33 C33 C32 4 4 4 118(2) ?
C34 C33 C32 4 4 4 123(2) ?
H34 C34 C35 4 4 4 121(2) ?
H34 C34 C33 4 4 4 122(2) ?
C35 C34 C33 4 4 4 116.5(19) ?
H35 C35 C34 4 4 4 117(2) ?
H35 C35 C36 4 4 4 118(2) ?
C34 C35 C36 4 4 4 125.5(17) ?
H36 C36 C35 4 4 4 121.4(17) ?
H36 C36 C31 4 4 4 121.8(18) ?
C35 C36 C31 4 4 4 116.8(18) ?
C46 C41 C42 4 4 4 117.9(16) ?
C46 C41 P1 4 4 4 118.9(13) ?
C42 C41 P1 4 4 4 122.4(13) ?
H42 C42 C43 4 4 4 119.1(17) ?
H42 C42 C41 4 4 4 120.6(15) ?
C43 C42 C41 4 4 4 120.1(15) ?
H43 C43 C42 4 4 4 119(2) ?
H43 C43 C44 4 4 4 118(2) ?
C42 C43 C44 4 4 4 123.0(16) ?
H44 C44 C45 4 4 4 122.9(18) ?
H44 C44 C43 4 4 4 120.8(18) ?
C45 C44 C43 4 4 4 116.3(16) ?
H45 C45 C44 4 4 4 119.4(18) ?
H45 C45 C46 4 4 4 116(2) ?
C44 C45 C46 4 4 4 124.4(16) ?
H46 C46 C45 4 4 4 120(2) ?
H46 C46 C41 4 4 4 122(2) ?
C45 C46 C41 4 4 4 117.7(15) ?
C56 C51 C52 4 4 4 116.4(17) ?
C56 C51 P2 4 4 4 125.0(18) ?
C52 C51 P2 4 4 4 118.6(15) ?
H52 C52 C53 4 4 4 121(3) ?
H52 C52 C51 4 4 4 120(2) ?
C53 C52 C51 4 4 4 119(2) ?
H53 C53 C54 4 4 4 118(2) ?
H53 C53 C52 4 4 4 118(2) ?
C54 C53 C52 4 4 4 124.4(18) ?
H54 C54 C53 4 4 4 121(2) ?
H54 C54 C55 4 4 4 121(2) ?
C53 C54 C55 4 4 4 118(2) ?
H55 C55 C54 4 4 4 119(2) ?
H55 C55 C56 4 4 4 118(2) ?
C54 C55 C56 4 4 4 122.7(17) ?
H56 C56 C55 4 4 4 120(2) ?
H56 C56 C51 4 4 4 120.1(18) ?
C55 C56 C51 4 4 4 119.4(15) ?
C62 C61 C66 4 4 4 121.2(16) ?
C62 C61 P2 4 4 4 121.8(13) ?
C66 C61 P2 4 4 4 117.0(14) ?
H62 C62 C63 4 4 4 120(2) ?
H62 C62 C61 4 4 4 119(2) ?
C63 C62 C61 4 4 4 120.8(15) ?
H63 C63 C64 4 4 4 120.6(18) ?
H63 C63 C62 4 4 4 119(2) ?
C64 C63 C62 4 4 4 120.1(15) ?
H64 C64 C63 4 4 4 120.6(17) ?
H64 C64 C65 4 4 4 120.4(18) ?
C63 C64 C65 4 4 4 118.9(16) ?
H65 C65 C66 4 4 4 118(2) ?
H65 C65 C64 4 4 4 117(2) ?
C66 C65 C64 4 4 4 125.4(15) ?
H66 C66 C65 4 4 4 124.6(17) ?
H66 C66 C61 4 4 4 122.0(17) ?
C65 C66 C61 4 4 4 113.5(14) ?

loop_
_geom_torsion_atom_site_label_1
_geom_torsion_atom_site_label_2
_geom_torsion_atom_site_label_3
_geom_torsion_atom_site_label_4
_geom_torsion_site_symmetry_1
_geom_torsion_site_symmetry_2
_geom_torsion_site_symmetry_3
_geom_torsion_site_symmetry_4
_geom_torsion
_geom_torsion_publ_flag #<< enter yes for value to be published
Cl1 Pt1 P1 C1 4 4 4 4 50.6(7) ?
Cl1 Pt1 P1 C31 4 4 4 4 169.9(11) ?
Cl1 Pt1 P1 C41 4 4 4 4 -68.0(6) ?
Cl2 Pt1 P1 C1 4 4 4 4 -125.8(7) ?
Cl2 Pt1 P1 C31 4 4 4 4 -6.5(11) ?
Cl2 Pt1 P1 C41 4 4 4 4 115.6(7) ?
P2 Pt1 P1 C1 4 4 4 4 -55(2) ?
P2 Pt1 P1 C31 4 4 4 4 64(2) ?
P2 Pt1 P1 C41 4 4 4 4 -173.9(16) ?
Cl1 Pt1 P2 C15 4 4 4 4 -125.5(7) ?
Cl1 Pt1 P2 C51 4 4 4 4 -9.0(10) ?
Cl1 Pt1 P2 C61 4 4 4 4 114.8(7) ?
Cl2 Pt1 P2 C15 4 4 4 4 51.0(7) ?
Cl2 Pt1 P2 C51 4 4 4 4 167.5(10) ?
Cl2 Pt1 P2 C61 4 4 4 4 -68.7(7) ?
P1 Pt1 P2 C15 4 4 4 4 -19.8(19) ?
P1 Pt1 P2 C51 4 4 4 4 97(2) ?
P1 Pt1 P2 C61 4 4 4 4 -139.5(16) ?
Pt1 P1 C1 C2 4 4 4 4 -138.2(15) ?
Pt1 P1 C1 C17 4 4 4 4 38.2(16) ?
C31 P1 C1 C2 4 4 4 4 90.3(18) ?
C31 P1 C1 C17 4 4 4 4 -93.2(17) ?
C41 P1 C1 C2 4 4 4 4 -16.2(18) ?
C41 P1 C1 C17 4 4 4 4 160.2(14) ?
Pt1 P1 C31 C32 4 4 4 4 -128(2) ?
Pt1 P1 C31 C36 4 4 4 4 57(2) ?
C1 P1 C31 C32 4 4 4 4 -6(3) ?
C1 P1 C31 C36 4 4 4 4 179.4(17) ?
C41 P1 C31 C32 4 4 4 4 105(2) ?
C41 P1 C31 C36 4 4 4 4 -69.7(19) ?
Pt1 P1 C41 C42 4 4 4 4 -161.4(13) ?
Pt1 P1 C41 C46 4 4 4 4 7.8(16) ?
C1 P1 C41 C42 4 4 4 4 79.4(16) ?
C1 P1 C41 C46 4 4 4 4 -111.4(15) ?
C31 P1 C41 C42 4 4 4 4 -28.0(17) ?
C31 P1 C41 C46 4 4 4 4 141.3(16) ?
Pt1 P2 C15 C14 4 4 4 4 -132.9(13) ?
Pt1 P2 C15 C16 4 4 4 4 46.6(18) ?
C51 P2 C15 C14 4 4 4 4 98.6(16) ?
C51 P2 C15 C16 4 4 4 4 -81.9(18) ?
C61 P2 C15 C14 4 4 4 4 -10.7(18) ?
C61 P2 C15 C16 4 4 4 4 168.8(16) ?
Pt1 P2 C51 C52 4 4 4 4 68(2) ?
Pt1 P2 C51 C56 4 4 4 4 -108.8(17) ?
C15 P2 C51 C52 4 4 4 4 -172.8(18) ?
C15 P2 C51 C56 4 4 4 4 10(2) ?
C61 P2 C51 C52 4 4 4 4 -60(2) ?
C61 P2 C51 C56 4 4 4 4 123.3(18) ?
Pt1 P2 C61 C62 4 4 4 4 8.6(18) ?
Pt1 P2 C61 C66 4 4 4 4 -170.9(13) ?
C15 P2 C61 C62 4 4 4 4 -110.3(17) ?
C15 P2 C61 C66 4 4 4 4 70.1(17) ?
C51 P2 C61 C62 4 4 4 4 141.5(17) ?
C51 P2 C61 C66 4 4 4 4 -38.0(17) ?
P1 C1 C2 C3 4 4 4 4 173.9(16) ?
P1 C1 C2 H2 4 4 4 4 -6(3) ?
C17 C1 C2 C3 4 4 4 4 -2(3) ?
C17 C1 C2 H2 4 4 4 4 177.3(17) ?
P1 C1 C17 C5 4 4 4 4 -170.0(15) ?
P1 C1 C17 O1 4 4 4 4 15(2) ?
C2 C1 C17 C5 4 4 4 4 7(3) ?
C2 C1 C17 O1 4 4 4 4 -168.9(17) ?
C1 C2 C3 C4 4 4 4 4 -1(3) ?
C1 C2 C3 C18 4 4 4 4 -179.8(16) ?
H2 C2 C3 C4 4 4 4 4 179.2(18) ?
H2 C2 C3 C18 4 4 4 4 0(3) ?
C2 C3 C4 C5 4 4 4 4 0(3) ?
C2 C3 C4 H4 4 4 4 4 180(2) ?
C18 C3 C4 C5 4 4 4 4 179.6(18) ?
C18 C3 C4 H4 4 4 4 4 -1(3) ?
C2 C3 C18 H181 4 4 4 4 60(2) ?
C2 C3 C18 H182 4 4 4 4 -60(2) ?
C2 C3 C18 H183 4 4 4 4 179.9(17) ?
C4 C3 C18 H181 4 4 4 4 -118.9(17) ?
C4 C3 C18 H182 4 4 4 4 121.3(17) ?
C4 C3 C18 H183 4 4 4 4 1(2) ?
C3 C4 C5 C6 4 4 4 4 -172(2) ?
C3 C4 C5 C17 4 4 4 4 3(3) ?
H4 C4 C5 C6 4 4 4 4 9(3) ?
H4 C4 C5 C17 4 4 4 4 -176.0(19) ?
C4 C5 C6 C7 4 4 4 4 152.1(19) ?
C4 C5 C6 C19 4 4 4 4 38(3) ?
C4 C5 C6 C20 4 4 4 4 -86(2) ?
C17 C5 C6 C7 4 4 4 4 -22(2) ?
C17 C5 C6 C19 4 4 4 4 -136.1(18) ?
C17 C5 C6 C20 4 4 4 4 99(2) ?
C4 C5 C17 C1 4 4 4 4 -7(3) ?
C4 C5 C17 O1 4 4 4 4 168.7(18) ?
C6 C5 C17 C1 4 4 4 4 168.4(18) ?
C6 C5 C17 O1 4 4 4 4 -16(3) ?
C5 C6 C7 C8 4 4 4 4 53.9(19) ?
C5 C6 C7 H71 4 4 4 4 -67.4(17) ?
C5 C6 C7 H72 4 4 4 4 175.5(13) ?
C19 C6 C7 C8 4 4 4 4 173.2(12) ?
C19 C6 C7 H71 4 4 4 4 51.9(16) ?
C19 C6 C7 H72 4 4 4 4 -65.3(14) ?
C20 C6 C7 C8 4 4 4 4 -66.3(17) ?
C20 C6 C7 H71 4 4 4 4 172.4(12) ?
C20 C6 C7 H72 4 4 4 4 55.3(15) ?
C5 C6 C19 H191 4 4 4 4 60.3(17) ?
C5 C6 C19 H192 4 4 4 4 -59.4(18) ?
C5 C6 C19 H193 4 4 4 4 -179.8(13) ?
C7 C6 C19 H191 4 4 4 4 -52.9(14) ?
C7 C6 C19 H192 4 4 4 4 -172.5(11) ?
C7 C6 C19 H193 4 4 4 4 67.1(14) ?
C20 C6 C19 H191 4 4 4 4 -174.9(10) ?
C20 C6 C19 H192 4 4 4 4 65.4(15) ?
C20 C6 C19 H193 4 4 4 4 -54.9(15) ?
C5 C6 C20 H201 4 4 4 4 59.9(15) ?
C5 C6 C20 H202 4 4 4 4 -60.1(16) ?
C5 C6 C20 H203 4 4 4 4 -179.9(12) ?
C7 C6 C20 H201 4 4 4 4 176.3(11) ?
C7 C6 C20 H202 4 4 4 4 56.3(15) ?
C7 C6 C20 H203 4 4 4 4 -63.5(14) ?
C19 C6 C20 H201 4 4 4 4 -66.3(14) ?
C19 C6 C20 H202 4 4 4 4 173.7(10) ?
C19 C6 C20 H203 4 4 4 4 53.9(14) ?
C6 C7 C8 O1 4 4 4 4 -44.0(18) ?
C6 C7 C8 C9 4 4 4 4 76.4(18) ?
C6 C7 C8 O2 4 4 4 4 -158.3(13) ?
H71 C7 C8 O1 4 4 4 4 77.2(16) ?
H71 C7 C8 C9 4 4 4 4 -162.3(13) ?
H71 C7 C8 O2 4 4 4 4 -37.1(17) ?
H72 C7 C8 O1 4 4 4 4 -165.5(12) ?
H72 C7 C8 C9 4 4 4 4 -45.1(17) ?
H72 C7 C8 O2 4 4 4 4 80.2(14) ?
C7 C8 O1 C17 4 4 4 4 0(2) ?
C9 C8 O1 C17 4 4 4 4 -128.0(16) ?
O2 C8 O1 C17 4 4 4 4 114.6(17) ?
C7 C8 C9 C10 4 4 4 4 89.4(17) ?
C7 C8 C9 H91 4 4 4 4 -31.7(18) ?
C7 C8 C9 H92 4 4 4 4 -149.4(13) ?
O1 C8 C9 C10 4 4 4 4 -149.8(13) ?
O1 C8 C9 H91 4 4 4 4 89.0(13) ?
O1 C8 C9 H92 4 4 4 4 -28.7(17) ?
O2 C8 C9 C10 4 4 4 4 -34.7(17) ?
O2 C8 C9 H91 4 4 4 4 -155.8(12) ?
O2 C8 C9 H92 4 4 4 4 86.5(16) ?
C7 C8 O2 C16 4 4 4 4 -137.1(15) ?
O1 C8 O2 C16 4 4 4 4 108.1(17) ?
C9 C8 O2 C16 4 4 4 4 -7(2) ?
C8 O1 C17 C1 4 4 4 4 -154.9(16) ?
C8 O1 C17 C5 4 4 4 4 30(3) ?
C8 C9 C10 C11 4 4 4 4 54(2) ?
C8 C9 C10 C21 4 4 4 4 -61.5(17) ?
C8 C9 C10 C22 4 4 4 4 178.7(11) ?
H91 C9 C10 C11 4 4 4 4 174.5(15) ?
H91 C9 C10 C21 4 4 4 4 59.3(17) ?
H91 C9 C10 C22 4 4 4 4 -60.5(16) ?
H92 C9 C10 C11 4 4 4 4 -67(2) ?
H92 C9 C10 C21 4 4 4 4 177.8(13) ?
H92 C9 C10 C22 4 4 4 4 58.0(17) ?
C9 C10 C11 C12 4 4 4 4 147(2) ?
C9 C10 C11 C16 4 4 4 4 -32(3) ?
C21 C10 C11 C12 4 4 4 4 -92(2) ?
C21 C10 C11 C16 4 4 4 4 88(2) ?
C22 C10 C11 C12 4 4 4 4 28(3) ?
C22 C10 C11 C16 4 4 4 4 -152(2) ?
C9 C10 C21 H211 4 4 4 4 60.2(16) ?
C9 C10 C21 H212 4 4 4 4 -59.5(16) ?
C9 C10 C21 H213 4 4 4 4 -179.8(12) ?
C11 C10 C21 H211 4 4 4 4 -56.7(16) ?
C11 C10 C21 H212 4 4 4 4 -176.3(13) ?
C11 C10 C21 H213 4 4 4 4 63.4(16) ?
C22 C10 C21 H211 4 4 4 4 178.7(10) ?
C22 C10 C21 H212 4 4 4 4 59.0(15) ?
C22 C10 C21 H213 4 4 4 4 -61.3(15) ?
C9 C10 C22 H221 4 4 4 4 60.1(15) ?
C9 C10 C22 H222 4 4 4 4 -60.1(15) ?
C9 C10 C22 H223 4 4 4 4 -180.0(10) ?
C11 C10 C22 H221 4 4 4 4 179.9(15) ?
C11 C10 C22 H222 4 4 4 4 59.7(19) ?
C11 C10 C22 H223 4 4 4 4 -60(2) ?
C21 C10 C22 H221 4 4 4 4 -62.1(14) ?
C21 C10 C22 H222 4 4 4 4 177.8(10) ?
C21 C10 C22 H223 4 4 4 4 57.9(15) ?
C10 C11 C12 C13 4 4 4 4 -178(2) ?
C10 C11 C12 H12 4 4 4 4 2(3) ?
C16 C11 C12 C13 4 4 4 4 1(3) ?
C16 C11 C12 H12 4 4 4 4 -178(2) ?
C10 C11 C16 C15 4 4 4 4 179(2) ?
C10 C11 C16 O2 4 4 4 4 -7(3) ?
C12 C11 C16 C15 4 4 4 4 0(3) ?
C12 C11 C16 O2 4 4 4 4 173.3(18) ?
C11 C12 C13 C14 4 4 4 4 -2(3) ?
C11 C12 C13 C23 4 4 4 4 -173.0(18) ?
H12 C12 C13 C14 4 4 4 4 177.8(18) ?
H12 C12 C13 C23 4 4 4 4 6(3) ?
C12 C13 C14 C15 4 4 4 4 2(3) ?
C12 C13 C14 H14 4 4 4 4 -178.4(18) ?
C23 C13 C14 C15 4 4 4 4 173.0(15) ?
C23 C13 C14 H14 4 4 4 4 -7(3) ?
C12 C13 C23 H231 4 4 4 4 60(2) ?
C12 C13 C23 H232 4 4 4 4 -60(2) ?
C12 C13 C23 H233 4 4 4 4 179.9(15) ?
C14 C13 C23 H231 4 4 4 4 -111.6(17) ?
C14 C13 C23 H232 4 4 4 4 128.2(16) ?
C14 C13 C23 H233 4 4 4 4 8(2) ?
C13 C14 C15 P2 4 4 4 4 178.4(15) ?
C13 C14 C15 C16 4 4 4 4 -1(3) ?
H14 C14 C15 P2 4 4 4 4 -2(2) ?
H14 C14 C15 C16 4 4 4 4 178.8(17) ?
P2 C15 C16 C11 4 4 4 4 -178.7(19) ?
P2 C15 C16 O2 4 4 4 4 7(2) ?
C14 C15 C16 C11 4 4 4 4 0(3) ?
C14 C15 C16 O2 4 4 4 4 -173.8(15) ?
C11 C16 O2 C8 4 4 4 4 30(3) ?
C15 C16 O2 C8 4 4 4 4 -155.0(16) ?
P1 C31 C32 C33 4 4 4 4 -175.5(18) ?
P1 C31 C32 H32 4 4 4 4 6(4) ?
C36 C31 C32 C33 4 4 4 4 0(3) ?
C36 C31 C32 H32 4 4 4 4 -179(2) ?
P1 C31 C36 C35 4 4 4 4 178.7(17) ?
P1 C31 C36 H36 4 4 4 4 0(3) ?
C32 C31 C36 C35 4 4 4 4 3(3) ?
C32 C31 C36 H36 4 4 4 4 -175(2) ?
C31 C32 C33 C34 4 4 4 4 0(3) ?
C31 C32 C33 H33 4 4 4 4 176(2) ?
H32 C32 C33 C34 4 4 4 4 179(2) ?
H32 C32 C33 H33 4 4 4 4 -5(3) ?
C32 C33 C34 C35 4 4 4 4 -2(3) ?
C32 C33 C34 H34 4 4 4 4 180(2) ?
H33 C33 C34 C35 4 4 4 4 -178(2) ?
H33 C33 C34 H34 4 4 4 4 4(4) ?
C33 C34 C35 C36 4 4 4 4 5(4) ?
C33 C34 C35 H35 4 4 4 4 -174(2) ?
H34 C34 C35 C36 4 4 4 4 -177(2) ?
H34 C34 C35 H35 4 4 4 4 4(4) ?
C34 C35 C36 C31 4 4 4 4 -6(3) ?
C34 C35 C36 H36 4 4 4 4 172(2) ?
H35 C35 C36 C31 4 4 4 4 173(2) ?
H35 C35 C36 H36 4 4 4 4 -9(3) ?
P1 C41 C42 C43 4 4 4 4 175.0(14) ?
P1 C41 C42 H42 4 4 4 4 -9(3) ?
C46 C41 C42 C43 4 4 4 4 6(3) ?
C46 C41 C42 H42 4 4 4 4 -178.3(17) ?
P1 C41 C46 C45 4 4 4 4 -177.8(16) ?
P1 C41 C46 H46 4 4 4 4 2(3) ?
C42 C41 C46 C45 4 4 4 4 -8(3) ?
C42 C41 C46 H46 4 4 4 4 171.5(19) ?
C41 C42 C43 C44 4 4 4 4 -2(3) ?
C41 C42 C43 H43 4 4 4 4 -179.3(16) ?
H42 C42 C43 C44 4 4 4 4 -178.3(17) ?
H42 C42 C43 H43 4 4 4 4 5(3) ?
C42 C43 C44 C45 4 4 4 4 1(3) ?
C42 C43 C44 H44 4 4 4 4 -179.9(18) ?
H43 C43 C44 C45 4 4 4 4 178.3(18) ?
H43 C43 C44 H44 4 4 4 4 -3(3) ?
C43 C44 C45 C46 4 4 4 4 -4(3) ?
C43 C44 C45 H45 4 4 4 4 176(2) ?
H44 C44 C45 C46 4 4 4 4 177(2) ?
H44 C44 C45 H45 4 4 4 4 -3(4) ?
C44 C45 C46 C41 4 4 4 4 8(3) ?
C44 C45 C46 H46 4 4 4 4 -172(2) ?
H45 C45 C46 C41 4 4 4 4 -173(2) ?
H45 C45 C46 H46 4 4 4 4 8(3) ?
P2 C51 C52 C53 4 4 4 4 175(2) ?
P2 C51 C52 H52 4 4 4 4 -6(4) ?
C56 C51 C52 C53 4 4 4 4 -8(4) ?
C56 C51 C52 H52 4 4 4 4 171(3) ?
P2 C51 C56 C55 4 4 4 4 -178.0(18) ?
P2 C51 C56 H56 4 4 4 4 2(3) ?
C52 C51 C56 C55 4 4 4 4 5(3) ?
C52 C51 C56 H56 4 4 4 4 -175(2) ?
C51 C52 C53 C54 4 4 4 4 3(4) ?
C51 C52 C53 H53 4 4 4 4 -177(2) ?
H52 C52 C53 C54 4 4 4 4 -176(3) ?
H52 C52 C53 H53 4 4 4 4 4(5) ?
C52 C53 C54 C55 4 4 4 4 5(4) ?
C52 C53 C54 H54 4 4 4 4 -172(3) ?
H53 C53 C54 C55 4 4 4 4 -175(2) ?
H53 C53 C54 H54 4 4 4 4 8(4) ?
C53 C54 C55 C56 4 4 4 4 -8(4) ?
C53 C54 C55 H55 4 4 4 4 170(3) ?
H54 C54 C55 C56 4 4 4 4 169(3) ?
H54 C54 C55 H55 4 4 4 4 -13(4) ?
C54 C55 C56 C51 4 4 4 4 2(4) ?
C54 C55 C56 H56 4 4 4 4 -177(2) ?
H55 C55 C56 C51 4 4 4 4 -176(2) ?
H55 C55 C56 H56 4 4 4 4 5(4) ?
P2 C61 C62 C63 4 4 4 4 -177.8(17) ?
P2 C61 C62 H62 4 4 4 4 2(3) ?
C66 C61 C62 C63 4 4 4 4 2(3) ?
C66 C61 C62 H62 4 4 4 4 -178(2) ?
P2 C61 C66 C65 4 4 4 4 175.7(16) ?
P2 C61 C66 H66 4 4 4 4 -5(3) ?
C62 C61 C66 C65 4 4 4 4 -4(3) ?
C62 C61 C66 H66 4 4 4 4 175(2) ?
C61 C62 C63 C64 4 4 4 4 1(3) ?
C61 C62 C63 H63 4 4 4 4 -179(2) ?
H62 C62 C63 C64 4 4 4 4 -179(2) ?
H62 C62 C63 H63 4 4 4 4 1(4) ?
C62 C63 C64 C65 4 4 4 4 -2(3) ?
C62 C63 C64 H64 4 4 4 4 179(2) ?
H63 C63 C64 C65 4 4 4 4 178(2) ?
H63 C63 C64 H64 4 4 4 4 0(4) ?
C63 C64 C65 C66 4 4 4 4 0(4) ?
C63 C64 C65 H65 4 4 4 4 -180(2) ?
H64 C64 C65 C66 4 4 4 4 179(2) ?
H64 C64 C65 H65 4 4 4 4 0(3) ?
C64 C65 C66 C61 4 4 4 4 3(3) ?
C64 C65 C66 H66 4 4 4 4 -176(2) ?
H65 C65 C66 C61 4 4 4 4 -177(2) ?
H65 C65 C66 H66 4 4 4 4 4(4) ?

loop_
_geom_hbond_atom_site_label_D
_geom_hbond_atom_site_label_H
_geom_hbond_atom_site_label_A
_geom_hbond_site_symmetry_D
_geom_hbond_site_symmetry_H
_geom_hbond_site_symmetry_A
_geom_hbond_distance_DH
_geom_hbond_distance_HA
_geom_hbond_distance_DA
_geom_hbond_angle_DHA
_geom_hbond_publ_flag #<< enter yes for value to be published
? ? ? ? ? ? ? ? ? ? ?

#--------------------------------------------------------------------------
#       Items which are non-mandatory for Acta C submissions
#--------------------------------------------------------------------------

loop_
_geom_contact_atom_site_label_1
_geom_contact_atom_site_label_2
_geom_contact_distance
_geom_contact_site_symmetry_1
_geom_contact_site_symmetry_2
_geom_contact_publ_flag
H231 H232 1.63280(8) 4 4 ?
H221 H223 1.63282(12) 4 4 ?
H191 H192 1.63288(10) 4 4 ?
H222 H223 1.63289(8) 4 4 ?
H181 H183 1.63289(11) 4 4 ?
H192 H193 1.63290(11) 4 4 ?
H182 H183 1.63293(9) 4 4 ?
H191 H193 1.63294(13) 4 4 ?
H221 H222 1.63299(9) 4 4 ?
H91 H92 1.63300(9) 4 4 ?
H211 H213 1.63300(12) 4 4 ?
H211 H212 1.63301(15) 4 4 ?
H232 H233 1.63303(17) 4 4 ?
H71 H72 1.63303(13) 4 4 ?
H201 H202 1.63310(8) 4 4 ?
H181 H182 1.63314(14) 4 4 ?
H231 H233 1.63318(8) 4 4 ?
H212 H213 1.63322(11) 4 4 ?
H202 H203 1.63324(9) 4 4 ?
H201 H203 1.63334(11) 4 4 ?
H91 H202 1.84245(12) 4 4 ?
C42 H43 2.001(17) 4 4 ?
C43 H42 2.00(2) 4 4 ?
C46 H45 2.01(2) 4 4 ?
C54 H53 2.01(2) 4 4 ?
C34 H35 2.01(2) 4 4 ?
C3 H2 2.018(19) 4 4 ?
C6 H71 2.02(2) 4 4 ?
C6 H72 2.03(2) 4 4 ?
C52 H53 2.03(3) 4 4 ?
C44 H45 2.03(2) 4 4 ?
C36 H35 2.032(17) 4 4 ?
C44 H43 2.04(2) 4 4 ?
C66 H65 2.044(18) 4 4 ?
C45 H46 2.05(2) 4 4 ?
C34 H33 2.05(2) 4 4 ?
C53 H54 2.05(2) 4 4 ?
C64 H65 2.051(19) 4 4 ?
C53 H52 2.06(2) 4 4 ?
C8 H71 2.057(17) 4 4 ?
C54 H55 2.06(2) 4 4 ?
C3 H183 2.06(2) 4 4 ?
C8 H72 2.059(17) 4 4 ?
C35 H34 2.06(3) 4 4 ?
C3 H182 2.06(2) 4 4 ?
C31 H32 2.06(3) 4 4 ?
C3 H181 2.06(2) 4 4 ?
C62 H63 2.06(3) 4 4 ?
C45 H44 2.06(2) 4 4 ?
C10 H223 2.07(2) 4 4 ?
C63 H64 2.07(2) 4 4 ?
C64 H63 2.067(19) 4 4 ?
C35 H36 2.07(3) 4 4 ?
C63 H62 2.07(2) 4 4 ?
C10 H222 2.07(2) 4 4 ?
C10 H221 2.07(2) 4 4 ?
C56 H55 2.07(2) 4 4 ?
C3 H4 2.069(19) 4 4 ?
C1 H2 2.069(19) 4 4 ?
C32 H33 2.07(2) 4 4 ?
C61 H62 2.07(2) 4 4 ?
C10 H92 2.07(2) 4 4 ?
C10 H91 2.07(2) 4 4 ?
C43 H44 2.07(2) 4 4 ?
C8 H92 2.077(17) 4 4 ?
C13 H14 2.08(2) 4 4 ?
C8 H91 2.078(17) 4 4 ?
C10 H211 2.08(2) 4 4 ?
C10 H213 2.08(2) 4 4 ?
C55 H54 2.08(2) 4 4 ?
C33 H34 2.08(3) 4 4 ?
C10 H212 2.08(2) 4 4 ?
C5 H4 2.082(19) 4 4 ?
C65 H64 2.09(2) 4 4 ?
C6 H191 2.09(2) 4 4 ?
C6 H202 2.09(2) 4 4 ?
C6 H203 2.09(2) 4 4 ?
C55 H56 2.09(2) 4 4 ?
C6 H201 2.09(2) 4 4 ?
C6 H193 2.093(17) 4 4 ?
C6 H192 2.093(18) 4 4 ?
C33 H32 2.09(2) 4 4 ?
C51 H56 2.09(2) 4 4 ?
C13 H12 2.10(2) 4 4 ?
C11 H12 2.10(2) 4 4 ?
C41 H42 2.099(18) 4 4 ?
H72 H211 2.10023(14) 4 4 ?
C41 H46 2.105(18) 4 4 ?
C13 H232 2.11(2) 4 4 ?
C13 H233 2.11(2) 4 4 ?
C13 H231 2.12(2) 4 4 ?
C65 H66 2.12(2) 4 4 ?
C15 H14 2.142(17) 4 4 ?
C51 H52 2.16(2) 4 4 ?
C61 H66 2.17(2) 4 4 ?
C31 H36 2.18(3) 4 4 ?
H181 H221 2.18888(15) 4 . ?
H71 H191 2.19012(10) 4 4 ?
H4 H192 2.21617(10) 4 4 ?
H12 H223 2.22352(11) 4 4 ?
H4 H183 2.25366(13) 4 4 ?
H34 H52 2.26317(12) 4 '3 556' ?
H42 H43 2.28987(15) 4 4 ?
H14 H193 2.29635(12) 4 '2 665' ?
H45 H46 2.30002(15) 4 4 ?
C43 C45 2.31(3) 4 4 ?
C15 O2 2.31(2) 4 4 ?
C33 C35 2.32(3) 4 4 ?
C12 C16 2.32(3) 4 4 ?
H14 H233 2.32351(15) 4 4 ?
H34 H35 2.32472(15) 4 4 ?
H53 H54 2.32627(10) 4 4 ?
C53 C55 2.33(3) 4 4 ?
H192 H42 2.32959(14) 4 2 ?
O1 O2 2.335(19) 4 4 ?
H52 H53 2.34023(11) 4 4 ?
C2 C4 2.34(2) 4 4 ?
H43 H44 2.3523(2) 4 4 ?
C41 C45 2.35(2) 4 4 ?
C41 C43 2.35(2) 4 4 ?
H64 H65 2.35365(12) 4 4 ?
H35 H36 2.35405(17) 4 4 ?
C42 C44 2.36(2) 4 4 ?
H62 H63 2.36630(10) 4 4 ?
C4 C17 2.37(2) 4 4 ?
C11 C21 2.37(3) 4 4 ?
H44 H45 2.37550(13) 4 4 ?
C61 C65 2.38(2) 4 4 ?
C1 C3 2.38(3) 4 4 ?
H32 H33 2.37748(14) 4 4 ?
H92 H222 2.37860(17) 4 4 ?
O1 H92 2.379(15) 4 4 ?
C63 C65 2.38(3) 4 4 ?
C62 C64 2.38(3) 4 4 ?
H55 H56 2.38063(13) 4 4 ?
C44 C46 2.38(3) 4 4 ?
H33 H34 2.38367(12) 4 4 ?
C5 C7 2.38(2) 4 4 ?
C52 C54 2.39(3) 4 4 ?
H54 H55 2.3880(3) 4 4 ?
H63 H64 2.38866(15) 4 4 ?
C1 O1 2.39(2) 4 4 ?
C31 C33 2.39(4) 4 4 ?
C5 O1 2.40(2) 4 4 ?
C14 C16 2.40(3) 4 4 ?
C42 C46 2.40(2) 4 4 ?
H91 H221 2.39960(18) 4 4 ?
C7 O2 2.40(2) 4 4 ?
H181 H222 2.40530(18) 4 . ?
C61 C63 2.41(2) 4 4 ?
C11 O2 2.41(3) 4 4 ?
C7 C19 2.409(18) 4 4 ?
C13 C15 2.41(3) 4 4 ?
O2 H71 2.411(13) 4 4 ?
C2 C17 2.41(2) 4 4 ?
C34 C36 2.41(3) 4 4 ?
C7 O1 2.42(2) 4 4 ?
O1 C9 2.42(2) 4 4 ?
H65 H66 2.41628(11) 4 4 ?
C51 C55 2.42(2) 4 4 ?
C31 C35 2.42(3) 4 4 ?
C9 C11 2.42(3) 4 4 ?
C1 C5 2.42(3) 4 4 ?
H222 H44 2.42807(13) 4 '3 556' ?
C12 C14 2.43(2) 4 4 ?
H232 H64 2.43356(16) 4 '3 656' ?
C54 C56 2.43(3) 4 4 ?
C51 C53 2.44(3) 4 4 ?
C9 C22 2.44(2) 4 4 ?
H72 H193 2.43747(11) 4 4 ?
C11 C15 2.44(3) 4 4 ?
C32 C34 2.44(3) 4 4 ?
C32 C36 2.44(3) 4 4 ?
H193 H203 2.4452(2) 4 4 ?
C52 C56 2.45(3) 4 4 ?
C10 C16 2.45(3) 4 4 ?
C9 O2 2.45(2) 4 4 ?
H213 H223 2.45352(17) 4 4 ?
C21 C22 2.462(16) 4 4 ?
C64 C66 2.46(2) 4 4 ?
C11 C13 2.46(3) 4 4 ?
C3 C5 2.47(3) 4 4 ?
H212 H221 2.47334(16) 4 4 ?
C19 H71 2.477(10) 4 4 ?
C4 C18 2.48(2) 4 4 ?
C62 C66 2.49(2) 4 4 ?
C2 C18 2.487(19) 4 4 ?
C8 C17 2.49(2) 4 4 ?
H43 H64 2.49299(16) 4 '4 455' ?
H72 H203 2.50830(16) 4 4 ?
C14 C23 2.51(2) 4 4 ?
C8 C16 2.51(3) 4 4 ?
C5 C20 2.51(2) 4 4 ?
C4 H183 2.515(18) 4 4 ?
C19 C20 2.520(16) 4 4 ?
H36 H55 2.5208(2) 4 '2 665' ?
C7 C20 2.522(17) 4 4 ?
C11 C22 2.52(3) 4 4 ?
C6 C17 2.53(3) 4 4 ?
H4 H42 2.53186(12) 4 2 ?
C7 H191 2.532(13) 4 4 ?
C11 H211 2.53(2) 4 4 ?
C9 C21 2.538(17) 4 4 ?
H91 H212 2.54652(12) 4 4 ?
C15 H56 2.55(2) 4 4 ?
C5 C19 2.55(2) 4 4 ?
C14 H233 2.555(16) 4 4 ?
H14 H66 2.5572(3) 4 4 ?
C12 C23 2.56(2) 4 4 ?
C10 C12 2.56(3) 4 4 ?
C20 H91 2.566(9) 4 4 ?
H182 H66 2.57339(16) 4 '4 455' ?
C4 C6 2.58(3) 4 4 ?
C5 H71 2.582(19) 4 4 ?
H14 H182 2.58486(11) 4 '4 655' ?
C11 H213 2.59(2) 4 4 ?
C19 H72 2.591(9) 4 4 ?
C22 H92 2.593(10) 4 4 ?
C8 C10 2.60(3) 4 4 ?
H55 H62 2.60779(15) 4 '2 655' ?
C22 H91 2.612(10) 4 4 ?
C18 H4 2.619(10) 4 4 ?
H213 H35 2.61969(16) 4 '2 655' ?
C6 C8 2.62(2) 4 4 ?
H181 H66 2.62073(12) 4 '4 455' ?
C9 H222 2.621(15) 4 4 ?
C9 H221 2.621(15) 4 4 ?
H232 H63 2.6227(3) 4 '3 656' ?
H72 H212 2.6302(2) 4 4 ?
H192 H201 2.6312(2) 4 4 ?
H213 H45 2.63659(13) 4 '1 656' ?
C21 H223 2.637(10) 4 4 ?
C7 C9 2.640(18) 4 4 ?
C7 H193 2.651(15) 4 4 ?
H2 H42 2.65089(15) 4 4 ?
C20 H72 2.651(10) 4 4 ?
H32 H54 2.6521(3) 4 '1 556' ?
C22 H212 2.653(10) 4 4 ?
H32 H53 2.65449(14) 4 '1 556' ?
H33 H54 2.65556(11) 4 '1 556' ?
C11 H92 2.66(2) 4 4 ?
C18 H2 2.661(9) 4 4 ?
C9 H202 2.662(14) 4 4 ?
H72 H91 2.6633(2) 4 4 ?
H36 H56 2.66676(11) 4 '2 665' ?
C7 C17 2.67(2) 4 4 ?
C66 H14 2.67(2) 4 4 ?
C22 H213 2.669(10) 4 4 ?
C19 H203 2.672(10) 4 4 ?
C23 H14 2.672(10) 4 4 ?
C16 H56 2.67(2) 4 4 ?
C21 H221 2.673(10) 4 4 ?
C7 H91 2.673(10) 4 4 ?
C20 H193 2.680(11) 4 4 ?
C1 H32 2.683(18) 4 4 ?
C42 C45 2.69(2) 4 4 ?
C21 H72 2.694(9) 4 4 ?
H91 H203 2.69550(12) 4 4 ?
C22 H181 2.698(12) 4 '1 656' ?
C13 C16 2.70(3) 4 4 ?
H92 H44 2.70554(12) 4 '3 556' ?
C7 H202 2.707(11) 4 4 ?
H201 H52 2.70976(17) 4 '1 556' ?
H183 H36 2.71003(12) 4 2 ?
C5 H202 2.71(2) 4 4 ?
C5 H201 2.71(2) 4 4 ?
O1 H71 2.716(14) 4 4 ?
H2 H182 2.71870(14) 4 4 ?
C43 C46 2.72(2) 4 4 ?
H2 H181 2.72131(12) 4 4 ?
H212 H65 2.72230(18) 4 '1 556' ?
C22 H12 2.723(9) 4 4 ?
C21 H91 2.723(10) 4 4 ?
C23 H12 2.723(11) 4 4 ?
C1 C4 2.72(2) 4 4 ?
C9 H72 2.729(11) 4 4 ?
C31 H42 2.73(3) 4 4 ?
O2 H72 2.735(13) 4 4 ?
C62 C65 2.73(2) 4 4 ?
C9 C16 2.74(3) 4 4 ?
C64 H232 2.74(2) 4 '3 655' ?
H12 H232 2.73953(13) 4 4 ?
C32 C35 2.74(2) 4 4 ?
C9 H212 2.742(10) 4 4 ?
O2 H211 2.742(13) 4 4 ?
C9 H211 2.743(12) 4 4 ?
C6 H4 2.74(2) 4 4 ?
C11 H222 2.75(2) 4 4 ?
C11 H223 2.75(2) 4 4 ?
C51 H66 2.749(18) 4 4 ?
C52 C55 2.75(3) 4 4 ?
O2 H56 2.755(13) 4 4 ?
C5 H192 2.76(2) 4 4 ?
C53 C56 2.757(14) 4 4 ?
H193 H233 2.75660(12) 4 '2 655' ?
C5 H191 2.76(2) 4 4 ?
C20 H192 2.758(12) 4 4 ?
C41 H2 2.759(17) 4 4 ?
C7 H203 2.759(12) 4 4 ?
C33 C36 2.76(3) 4 4 ?
C4 H192 2.760(13) 4 4 ?
P2 C52 2.76(3) 4 4 ?
C10 H12 2.76(2) 4 4 ?
C19 H201 2.766(10) 4 4 ?
H222 H43 2.76666(13) 4 '3 556' ?
C41 C44 2.77(3) 4 4 ?
C2 H181 2.768(17) 4 4 ?
C2 H182 2.768(16) 4 4 ?
C17 H71 2.772(19) 4 4 ?
C61 H14 2.775(18) 4 4 ?
C61 C64 2.78(3) 4 4 ?
H201 H33 2.77759(13) 4 2 ?
P1 C46 2.78(2) 4 4 ?
C12 C15 2.78(2) 4 4 ?
C3 C17 2.79(3) 4 4 ?
C51 C61 2.79(3) 4 4 ?
P2 C56 2.79(2) 4 4 ?
C19 H4 2.788(9) 4 4 ?
C42 H2 2.792(19) 4 4 ?
P2 C66 2.794(18) 4 4 ?
H2 H221 2.7956(3) 4 . ?
C33 H54 2.80(2) 4 '1 556' ?
P2 C62 2.80(3) 4 4 ?
C8 H211 2.799(17) 4 4 ?
C12 H223 2.799(15) 4 4 ?
Cl2 H62 2.799(8) 4 4 ?
H12 H231 2.79909(17) 4 4 ?
C2 C5 2.80(3) 4 4 ?
C15 C51 2.80(3) 4 4 ?
H202 H53 2.80325(13) 4 '1 556' ?
C14 H182 2.804(16) 4 '4 655' ?
Cl1 H46 2.805(5) 4 4 ?
C64 H191 2.81(2) 4 '2 665' ?
C12 H35 2.81(2) 4 '2 655' ?
C12 H232 2.82(2) 4 4 ?
C7 H211 2.820(15) 4 4 ?
C12 H231 2.823(18) 4 4 ?
O1 H91 2.824(15) 4 4 ?
C31 C34 2.82(4) 4 4 ?
C10 O2 2.82(2) 4 4 ?
C32 H54 2.82(2) 4 '1 556' ?
H45 H54 2.82555(15) 4 '2 665' ?
H72 H191 2.82713(18) 4 4 ?
P1 C17 2.83(2) 4 4 ?
C51 C54 2.83(3) 4 4 ?
C63 H232 2.83(3) 4 '3 655' ?
H71 H193 2.83146(13) 4 4 ?
P1 C36 2.832(18) 4 4 ?
P1 C42 2.836(17) 4 4 ?
H231 H53 2.8406(2) 4 '1 656' ?
H43 H65 2.84075(12) 4 '4 455' ?
O2 H92 2.841(15) 4 4 ?
P2 C16 2.84(2) 4 4 ?
H12 H64 2.85489(14) 4 '3 656' ?
C63 C66 2.855(19) 4 4 ?
C63 H191 2.86(2) 4 '2 665' ?
H12 H222 2.85680(19) 4 4 ?
C31 C41 2.86(3) 4 4 ?
P1 C2 2.857(16) 4 4 ?
C44 H222 2.863(19) 4 3 ?
H233 H32 2.8656(2) 4 '4 655' ?
C11 C14 2.87(3) 4 4 ?
C16 H211 2.87(2) 4 4 ?
H92 H221 2.87910(18) 4 4 ?
P1 C32 2.88(2) 4 4 ?
P2 H52 2.883(7) 4 4 ?
H4 H201 2.8846(2) 4 4 ?
P2 C14 2.885(17) 4 4 ?
C8 H202 2.890(17) 4 4 ?
H203 H65 2.8949(2) 4 '1 556' ?
C6 O1 2.90(2) 4 4 ?
C14 H193 2.895(17) 4 '2 665' ?
P2 O2 2.896(15) 4 4 ?
C45 H213 2.90(2) 4 . ?
H221 H65 2.89843(14) 4 '1 556' ?
C36 H183 2.906(18) 4 '2 565' ?
H46 H55 2.90737(13) 4 '2 665' ?
P1 H46 2.908(8) 4 4 ?
P2 H62 2.908(5) 4 4 ?
H91 H222 2.90838(15) 4 4 ?
Cl2 H36 2.909(5) 4 4 ?
H12 H35 2.90891(15) 4 '2 655' ?
H72 H202 2.91083(18) 4 4 ?
C1 C31 2.91(3) 4 4 ?
C65 H203 2.92(2) 4 '1 655' ?
H212 H223 2.91699(14) 4 4 ?
P2 H66 2.920(5) 4 4 ?
C43 H65 2.920(17) 4 '4 455' ?
P1 H36 2.927(5) 4 4 ?
Pt1 H46 2.927(5) 4 4 ?
C5 C8 2.93(3) 4 4 ?
C8 C11 2.93(3) 4 4 ?
C16 H92 2.93(2) 4 4 ?
H192 H233 2.95062(15) 4 '2 655' ?
P2 H56 2.954(5) 4 4 ?
C64 H43 2.96(2) 4 '4 655' ?
P1 H2 2.957(5) 4 4 ?
H34 H46 2.95803(16) 4 '3 556' ?
H191 H43 2.95918(19) 4 2 ?
Pt1 H62 2.962(2) 4 4 ?
H202 H52 2.97244(19) 4 '1 556' ?
P1 H42 2.975(4) 4 4 ?
C1 C41 2.98(3) 4 4 ?
C15 C61 2.98(3) 4 4 ?
H213 H221 2.99261(18) 4 4 ?
H12 H213 2.99557(14) 4 4 ?
C55 H62 3.00(2) 4 '2 655' ?
P1 O1 3.004(15) 4 4 ?
C12 C22 3.01(2) 4 4 ?
H192 H203 3.0057(3) 4 4 ?
C35 H213 3.01(2) 4 '2 665' ?
H4 H43 3.0136(3) 4 2 ?
Cl1 H34 3.015(8) 4 3 ?
P2 H14 3.016(5) 4 4 ?
C15 C56 3.02(2) 4 4 ?
C53 H202 3.02(2) 4 '1 655' ?
C4 C19 3.022(18) 4 4 ?
H193 H201 3.02775(18) 4 4 ?
H91 H211 3.02853(16) 4 4 ?
C46 H55 3.030(18) 4 '2 665' ?
P1 H32 3.035(7) 4 4 ?
Cl2 H211 3.041(6) 4 '2 665' ?
C18 H66 3.050(10) 4 '4 455' ?
C32 H42 3.05(2) 4 4 ?
C18 H221 3.053(9) 4 . ?
H71 H63 3.0604(3) 4 '2 655' ?
C51 C66 3.07(2) 4 4 ?
C6 H91 3.07(2) 4 4 ?
C19 H14 3.068(11) 4 '2 655' ?
H231 H35 3.06814(14) 4 '2 655' ?
C43 H222 3.07(2) 4 3 ?
C35 H183 3.07(3) 4 '2 565' ?
C52 H202 3.07(3) 4 '1 655' ?
C12 H213 3.07(2) 4 4 ?
C2 H32 3.080(18) 4 4 ?
H4 H191 3.08048(18) 4 4 ?
H46 H54 3.08213(14) 4 '2 665' ?
H221 H66 3.09157(19) 4 '1 556' ?
H183 H35 3.0916(3) 4 2 ?
H182 H233 3.0954(2) 4 '4 455' ?
C12 H222 3.097(16) 4 4 ?
Pt1 O2 3.098(14) 4 4 ?
H92 H202 3.09832(15) 4 4 ?
Cl1 H52 3.098(6) 4 4 ?
C31 C42 3.10(3) 4 4 ?
C14 H231 3.109(16) 4 4 ?
Pt1 O1 3.112(15) 4 4 ?
C45 H54 3.11(2) 4 '2 665' ?
C34 H52 3.11(2) 4 '3 556' ?
C34 H46 3.11(2) 4 '3 556' ?
C33 H201 3.12(2) 4 '2 565' ?
C61 H52 3.117(19) 4 4 ?
C65 H191 3.12(2) 4 '2 665' ?
O1 H202 3.121(14) 4 4 ?
C4 H181 3.13(2) 4 4 ?
C42 H4 3.126(16) 4 '2 565' ?
C4 H201 3.13(2) 4 4 ?
C8 C21 3.13(2) 4 4 ?
H192 H43 3.1340(3) 4 2 ?
C4 H182 3.138(17) 4 4 ?
C16 C21 3.14(2) 4 4 ?
C65 H43 3.15(2) 4 '4 655' ?
C13 H35 3.16(2) 4 '2 655' ?
C1 C32 3.16(3) 4 4 ?
Cl2 P2 3.163(9) 4 4 ?
H2 H223 3.1669(3) 4 . ?
H191 H64 3.1685(4) 4 '2 655' ?
C14 H66 3.169(16) 4 4 ?
C52 H34 3.17(3) 4 3 ?
C4 H191 3.173(16) 4 4 ?
H182 H231 3.1742(3) 4 '4 455' ?
C55 H36 3.18(2) 4 '2 655' ?
H181 H223 3.1803(2) 4 . ?
C45 H212 3.20(2) 4 . ?
C14 H232 3.196(16) 4 4 ?
C43 H64 3.197(16) 4 '4 455' ?
H44 H64 3.2041(2) 4 '4 455' ?
C42 H183 3.205(18) 4 '2 565' ?
C10 H72 3.21(2) 4 4 ?
C42 H192 3.207(15) 4 '2 565' ?
C45 H43 3.21(2) 4 4 ?
C2 H221 3.21(2) 4 . ?
C33 H35 3.21(2) 4 4 ?
C13 H182 3.22(2) 4 '4 655' ?
C17 H32 3.22(2) 4 4 ?
H201 H34 3.2174(2) 4 2 ?
C18 H222 3.218(10) 4 . ?
C64 H203 3.22(2) 4 '1 655' ?
C44 H212 3.219(19) 4 . ?
C19 H42 3.221(9) 4 2 ?
C11 H35 3.22(2) 4 '2 655' ?
C8 C20 3.22(2) 4 4 ?
C2 C41 3.22(2) 4 4 ?
C43 H45 3.22(2) 4 4 ?
C35 H33 3.22(2) 4 4 ?
C55 H53 3.22(2) 4 4 ?
C53 H55 3.226(19) 4 4 ?
C16 H12 3.23(2) 4 4 ?
C14 C61 3.23(2) 4 4 ?
H191 H63 3.2303(2) 4 '2 655' ?
H183 H42 3.23272(16) 4 2 ?
C12 H64 3.235(17) 4 '3 656' ?
H212 H45 3.23514(17) 4 '1 656' ?
H211 H56 3.2364(3) 4 4 ?
C62 H191 3.238(18) 4 '2 665' ?
Cl1 P1 3.239(9) 4 4 ?
C2 H4 3.239(16) 4 4 ?
Cl2 C36 3.24(2) 4 4 ?
H203 H212 3.2404(2) 4 4 ?
C41 H45 3.24(2) 4 4 ?
H14 H192 3.24418(15) 4 '2 665' ?
C56 H36 3.245(18) 4 '2 655' ?
C17 H202 3.250(19) 4 4 ?
C54 H33 3.25(2) 4 '1 655' ?
C2 H223 3.25(2) 4 . ?
C4 H2 3.252(14) 4 4 ?
C54 H32 3.25(2) 4 '1 655' ?
O1 H72 3.252(13) 4 4 ?
H71 H211 3.2525(2) 4 4 ?
C11 H212 3.25(2) 4 4 ?
C5 H72 3.254(19) 4 4 ?
O2 H91 3.256(15) 4 4 ?
O2 C56 3.26(2) 4 4 ?
C42 H44 3.258(13) 4 4 ?
C44 H42 3.258(18) 4 4 ?
C41 H36 3.258(18) 4 4 ?
C23 H64 3.259(10) 4 '3 656' ?
C41 H43 3.260(17) 4 4 ?
H14 H191 3.26073(17) 4 '2 665' ?
Cl2 C15 3.26(2) 4 4 ?
C63 H65 3.266(19) 4 4 ?
C56 H66 3.27(2) 4 4 ?
C44 H46 3.27(2) 4 4 ?
C17 H4 3.270(19) 4 4 ?
C52 H66 3.27(3) 4 4 ?
H182 H56 3.2719(2) 4 '4 455' ?
C52 C61 3.27(3) 4 4 ?
O2 C21 3.277(18) 4 4 ?
C46 H213 3.28(2) 4 . ?
C44 H92 3.279(19) 4 3 ?
C11 H91 3.28(2) 4 4 ?
C54 H52 3.28(2) 4 4 ?
C31 H33 3.28(3) 4 4 ?
C52 H54 3.28(2) 4 4 ?
C64 H62 3.28(2) 4 4 ?
C7 H192 3.284(15) 4 4 ?
C4 H43 3.28(2) 4 2 ?
H2 H32 3.2867(3) 4 4 ?
C2 H183 3.287(16) 4 4 ?
C46 H54 3.29(2) 4 '2 665' ?
C12 C21 3.29(2) 4 4 ?
C62 H64 3.289(18) 4 4 ?
C36 H42 3.289(18) 4 4 ?
C20 H52 3.289(10) 4 '1 556' ?
H201 H53 3.29023(18) 4 '1 556' ?
C46 H44 3.292(18) 4 4 ?
C61 H65 3.294(18) 4 4 ?
C65 H63 3.29(2) 4 4 ?
H231 H32 3.29477(18) 4 '4 655' ?
C53 H32 3.296(18) 4 '1 655' ?
C63 H71 3.30(2) 4 '2 665' ?
C35 H45 3.30(2) 4 '3 556' ?
H4 H181 3.30136(19) 4 4 ?
C19 H233 3.306(11) 4 '2 655' ?
C61 H63 3.31(2) 4 4 ?
C34 H36 3.31(2) 4 4 ?
H14 H231 3.3062(2) 4 4 ?
H231 H34 3.30709(18) 4 '2 655' ?
C22 H44 3.307(8) 4 '3 556' ?
C17 H53 3.309(18) 4 '1 556' ?
C36 H34 3.310(18) 4 4 ?
C34 H201 3.31(3) 4 '2 565' ?
H4 H182 3.31067(15) 4 4 ?
C14 H56 3.311(17) 4 4 ?
C52 H201 3.31(3) 4 '1 655' ?
C51 H55 3.314(17) 4 4 ?
C46 H42 3.314(18) 4 4 ?
H32 H42 3.3147(3) 4 4 ?
C16 H14 3.31(2) 4 4 ?
C44 H65 3.32(2) 4 '4 455' ?
C9 H223 3.316(15) 4 4 ?
C17 H2 3.318(18) 4 4 ?
C42 H46 3.318(16) 4 4 ?
H211 H35 3.3193(2) 4 '2 655' ?
H182 H35 3.3193(2) 4 2 ?
C34 H45 3.32(2) 4 '3 556' ?
H191 H42 3.3218(2) 4 2 ?
O2 C51 3.32(3) 4 4 ?
C9 C20 3.323(15) 4 4 ?
C21 H45 3.324(12) 4 '1 656' ?
Cl2 P1 3.324(7) 4 4 ?
C20 H4 3.325(11) 4 4 ?
H203 H232 3.32497(18) 4 '2 655' ?
Cl1 P2 3.325(7) 4 4 ?
C3 H221 3.33(2) 4 . ?
C31 H35 3.33(3) 4 4 ?
Cl1 H12 3.327(7) 4 . ?
H212 H44 3.32785(18) 4 '1 656' ?
C14 H12 3.328(16) 4 4 ?
H91 H65 3.32953(18) 4 '1 556' ?
C34 H32 3.33(2) 4 4 ?
C22 H211 3.331(12) 4 4 ?
C54 H56 3.33(2) 4 4 ?
C56 H54 3.333(14) 4 4 ?
C21 H222 3.333(12) 4 4 ?
C23 H182 3.334(9) 4 '4 655' ?
C43 H183 3.34(2) 4 '2 565' ?
C5 H53 3.34(2) 4 '1 556' ?
C11 H44 3.34(2) 4 '3 556' ?
C51 H53 3.34(3) 4 4 ?
C12 H14 3.339(15) 4 4 ?
C21 H35 3.340(8) 4 '2 655' ?
C35 H4 3.34(2) 4 '2 565' ?
H33 H52 3.34344(17) 4 '3 556' ?
C32 H34 3.350(16) 4 4 ?
C66 H64 3.350(15) 4 4 ?
C20 H71 3.351(12) 4 4 ?
C56 H52 3.351(16) 4 4 ?
C33 H45 3.35(2) 4 '3 556' ?
C32 H36 3.35(2) 4 4 ?
C4 C20 3.35(2) 4 4 ?
C34 H4 3.36(2) 4 '2 565' ?
C33 H46 3.36(2) 4 '3 556' ?
Pt1 C15 3.361(17) 4 4 ?
C11 H221 3.36(2) 4 4 ?
C36 H32 3.362(18) 4 4 ?
Cl1 C52 3.36(3) 4 4 ?
C52 H56 3.37(3) 4 4 ?
C23 H193 3.366(9) 4 '2 665' ?
C53 H231 3.37(2) 4 . ?
C7 H201 3.372(14) 4 4 ?
O1 C16 3.37(3) 4 4 ?
C5 H203 3.38(2) 4 4 ?
C12 H233 3.377(18) 4 4 ?
H71 H192 3.37760(18) 4 4 ?
C20 H191 3.378(13) 4 4 ?
C21 H92 3.381(12) 4 4 ?
C43 H4 3.38(2) 4 '2 565' ?
O2 C17 3.38(2) 4 4 ?
C19 H202 3.382(11) 4 4 ?
C41 H55 3.382(17) 4 '2 665' ?
C14 C66 3.38(3) 4 4 ?
C64 H66 3.388(19) 4 4 ?
C13 H193 3.39(2) 4 '2 665' ?
C7 C21 3.388(16) 4 4 ?
C15 H66 3.388(17) 4 4 ?
C66 H62 3.388(15) 4 4 ?
C13 H64 3.39(2) 4 '3 656' ?
H232 H33 3.38886(18) 4 '4 655' ?
C2 H42 3.391(15) 4 4 ?
C9 H213 3.392(13) 4 4 ?
Cl1 C1 3.39(2) 4 4 ?
C16 C56 3.39(2) 4 4 ?
H183 H43 3.39443(17) 4 2 ?
C22 H2 3.395(12) 4 '1 656' ?
C4 H42 3.395(14) 4 2 ?
C36 C41 3.40(3) 4 4 ?
H183 H56 3.3985(3) 4 '4 455' ?
C7 H92 3.399(12) 4 4 ?
C21 H12 3.399(12) 4 4 ?
H14 H232 3.3993(3) 4 4 ?
C62 H66 3.40(2) 4 4 ?
C5 H193 3.402(19) 4 4 ?
Pt1 C1 3.405(19) 4 4 ?
Cl1 H223 3.410(5) 4 . ?
H33 H46 3.4148(2) 4 '3 556' ?
H35 H56 3.4158(3) 4 '2 665' ?
Cl1 C51 3.417(19) 4 4 ?
C7 H212 3.417(12) 4 4 ?
C17 C20 3.42(2) 4 4 ?
Pt1 C61 3.423(18) 4 4 ?
H213 H46 3.4231(2) 4 '1 656' ?
H203 H64 3.42401(19) 4 '1 556' ?
C6 C9 3.43(2) 4 4 ?
H91 H201 3.4272(2) 4 4 ?
C9 H71 3.428(15) 4 4 ?
C66 H182 3.432(18) 4 '4 655' ?
C23 H32 3.432(13) 4 '4 655' ?
H33 H62 3.4338(4) 4 '3 556' ?
C20 H53 3.435(9) 4 '1 556' ?
C66 H202 3.44(2) 4 '1 655' ?
C8 H212 3.435(17) 4 4 ?
C52 C66 3.44(3) 4 4 ?
C42 H65 3.438(16) 4 '4 455' ?
C62 H33 3.44(2) 4 3 ?
H2 H233 3.4398(3) 4 '4 455' ?
C55 H63 3.44(3) 4 '2 655' ?
H211 H36 3.4450(2) 4 '2 655' ?
C3 H222 3.45(2) 4 . ?
Cl2 C62 3.45(2) 4 4 ?
C66 H203 3.46(2) 4 '1 655' ?
Pt1 C41 3.458(17) 4 4 ?
H202 H66 3.4647(4) 4 '1 556' ?
C11 H56 3.47(2) 4 4 ?
C32 H45 3.47(2) 4 '3 556' ?
Cl2 C31 3.47(3) 4 4 ?
C36 H45 3.471(18) 4 '3 556' ?
Cl1 C46 3.47(2) 4 4 ?
C36 H55 3.475(18) 4 '2 665' ?
Cl1 H63 3.477(5) 4 '2 655' ?
C12 H44 3.480(18) 4 '3 556' ?
C54 H63 3.48(3) 4 '2 655' ?
C32 H53 3.488(15) 4 '1 556' ?
H44 H65 3.48870(15) 4 '4 455' ?
H202 H65 3.48895(19) 4 '1 556' ?
C66 H191 3.490(16) 4 '2 665' ?
C32 H233 3.49(2) 4 '4 455' ?
H92 H45 3.49361(19) 4 '3 556' ?
C21 C45 3.50(2) 4 '1 656' ?
C43 C65 3.50(2) 4 '4 455' ?
C19 H43 3.500(10) 4 2 ?
H91 H66 3.5002(3) 4 '1 556' ?
C36 H213 3.500(18) 4 '2 665' ?
C65 H202 3.50(2) 4 '1 655' ?
C23 H63 3.501(9) 4 '3 656' ?
H182 H221 3.5043(3) 4 . ?
H233 H33 3.50538(17) 4 '4 655' ?
C7 C10 3.51(2) 4 4 ?
C9 H203 3.506(11) 4 4 ?
C66 H52 3.507(18) 4 4 ?
H2 H65 3.5151(2) 4 '4 455' ?
H92 H223 3.5163(2) 4 4 ?
C31 H45 3.52(3) 4 '3 556' ?
C36 H4 3.517(19) 4 '2 565' ?
Pt1 C51 3.519(19) 4 4 ?
C36 C42 3.52(2) 4 4 ?
C16 H213 3.52(2) 4 4 ?
Pt1 C46 3.523(19) 4 4 ?
H72 H192 3.5235(2) 4 4 ?
C9 H44 3.525(10) 4 '3 556' ?
C16 C51 3.53(3) 4 4 ?
C3 H223 3.53(2) 4 . ?
C36 H56 3.531(18) 4 '2 665' ?
O1 H32 3.531(14) 4 4 ?
H91 H223 3.5313(2) 4 4 ?
C62 H55 3.536(16) 4 '2 665' ?
C61 H191 3.54(2) 4 '2 665' ?
H181 H43 3.53740(16) 4 2 ?
C18 C22 3.539(16) 4 . ?
C44 H64 3.54(2) 4 '4 455' ?
Cl2 H55 3.542(7) 4 '2 665' ?
H193 H232 3.5426(2) 4 '2 655' ?
C54 H62 3.54(2) 4 '2 655' ?
C15 H182 3.546(16) 4 '4 655' ?
C56 H182 3.55(2) 4 '4 655' ?
H231 H63 3.5534(3) 4 '3 656' ?
C10 H44 3.55(2) 4 '3 556' ?
O1 C20 3.555(17) 4 4 ?
O1 H53 3.555(14) 4 '1 556' ?
C2 C42 3.56(2) 4 4 ?
C9 C17 3.56(2) 4 4 ?
Pt1 C62 3.557(19) 4 4 ?
H2 H66 3.5567(2) 4 '4 455' ?
C15 C66 3.56(3) 4 4 ?
H183 H222 3.5602(3) 4 . ?
H211 H223 3.5608(3) 4 4 ?
C53 H63 3.56(2) 4 '2 655' ?
C18 H14 3.562(9) 4 '4 455' ?
C65 H14 3.57(2) 4 4 ?
Cl1 C17 3.57(2) 4 4 ?
C42 H36 3.568(16) 4 4 ?
Cl2 H72 3.569(5) 4 '2 665' ?
C44 H213 3.571(19) 4 . ?
Cl1 H71 3.572(7) 4 4 ?
C43 H192 3.57(2) 4 '2 565' ?
H191 H203 3.5728(4) 4 4 ?
H72 H201 3.5736(2) 4 4 ?
H213 H222 3.57441(16) 4 4 ?
Pt1 C17 3.576(19) 4 4 ?
H193 H202 3.5766(2) 4 4 ?
C8 H203 3.577(17) 4 4 ?
H92 H54 3.57791(19) 4 '1 556' ?
H211 H221 3.5788(3) 4 4 ?
H212 H222 3.57908(18) 4 4 ?
C66 H181 3.579(14) 4 '4 655' ?
C12 H211 3.58(2) 4 4 ?
C20 C65 3.58(3) 4 '1 556' ?
H232 H32 3.5839(2) 4 '4 655' ?
C1 H42 3.589(18) 4 4 ?
H56 H66 3.59134(15) 4 4 ?
C33 H4 3.59(2) 4 '2 565' ?
C2 C22 3.59(2) 4 . ?
H72 H213 3.5959(2) 4 4 ?
H203 H233 3.59787(17) 4 '2 655' ?
H183 H55 3.5988(2) 4 '4 455' ?
C23 H53 3.599(12) 4 '1 656' ?
C2 H233 3.600(18) 4 '4 455' ?
C18 H36 3.602(10) 4 2 ?
C63 H33 3.61(2) 4 3 ?
C33 C54 3.61(3) 4 '1 556' ?
Cl2 H45 3.607(8) 4 '3 556' ?
H71 H203 3.6077(3) 4 4 ?
C17 H92 3.609(18) 4 4 ?
H36 H42 3.6116(2) 4 4 ?
H2 H183 3.61178(17) 4 4 ?
Pt1 H55 3.614(2) 4 '2 665' ?
H71 H91 3.6151(4) 4 4 ?
C3 H231 3.62(2) 4 '4 455' ?
C45 H55 3.62(2) 4 '2 665' ?
C23 H35 3.618(9) 4 '2 655' ?
H52 H66 3.6238(2) 4 4 ?
C43 C64 3.62(2) 4 '4 455' ?
C62 H71 3.63(2) 4 '2 665' ?
H91 H213 3.6266(2) 4 4 ?
H71 H202 3.6278(3) 4 4 ?
C18 H35 3.629(10) 4 2 ?
C20 H65 3.629(11) 4 '1 556' ?
H191 H65 3.6300(3) 4 '2 655' ?
C43 H181 3.631(18) 4 '2 565' ?
C32 C54 3.63(3) 4 '1 556' ?
H213 H36 3.6318(3) 4 '2 655' ?
H92 H212 3.63210(18) 4 4 ?
C65 H212 3.633(19) 4 '1 655' ?
C65 H221 3.63(2) 4 '1 655' ?
C8 C15 3.63(2) 4 4 ?
C55 H46 3.635(18) 4 '2 655' ?
C3 C22 3.64(2) 4 . ?
Cl2 C16 3.64(2) 4 4 ?
C53 H201 3.64(2) 4 '1 655' ?
C3 H43 3.64(2) 4 2 ?
C4 O1 3.64(2) 4 4 ?
C17 H72 3.644(19) 4 4 ?
C56 H62 3.65(2) 4 '2 655' ?
C2 O1 3.65(2) 4 4 ?
C7 C16 3.65(3) 4 4 ?
C14 O2 3.65(2) 4 4 ?
C56 H183 3.65(2) 4 '4 655' ?
O1 C31 3.65(3) 4 4 ?
C20 C52 3.66(3) 4 '1 556' ?
C22 H43 3.656(9) 4 '3 556' ?
C33 H52 3.66(2) 4 '3 556' ?
Pt1 C16 3.66(2) 4 4 ?
C12 O2 3.66(2) 4 4 ?
Cl2 C61 3.66(2) 4 4 ?
C61 H193 3.667(18) 4 '2 665' ?
C21 H65 3.669(10) 4 '1 556' ?
C34 H213 3.67(3) 4 '2 665' ?
C56 H63 3.68(2) 4 '2 655' ?
Pt1 C31 3.68(3) 4 4 ?
C66 H221 3.677(17) 4 '1 655' ?
C62 H14 3.68(2) 4 4 ?
C43 H2 3.68(2) 4 4 ?
C45 H92 3.68(2) 4 3 ?
C17 H91 3.681(18) 4 4 ?
C42 H45 3.687(13) 4 4 ?
C20 H33 3.688(9) 4 2 ?
C4 H53 3.69(2) 4 '1 556' ?
C45 H42 3.689(16) 4 4 ?
C4 C7 3.69(2) 4 4 ?
C16 H91 3.69(2) 4 4 ?
C1 C42 3.69(3) 4 4 ?
C31 H2 3.69(3) 4 4 ?
C54 H45 3.69(2) 4 '2 655' ?
C23 C64 3.69(2) 4 '3 656' ?
C4 H202 3.70(2) 4 4 ?
C2 C32 3.70(3) 4 4 ?
C54 H46 3.71(2) 4 '2 655' ?
C18 H56 3.708(11) 4 '4 455' ?
C18 H43 3.709(9) 4 2 ?
Cl2 C21 3.710(14) 4 '2 665' ?
C2 C31 3.71(3) 4 4 ?
C17 C31 3.71(4) 4 4 ?
C35 H231 3.713(15) 4 '2 665' ?
C43 H46 3.716(15) 4 4 ?
C46 H43 3.718(16) 4 4 ?
C16 C22 3.72(2) 4 4 ?
C1 C8 3.72(3) 4 4 ?
C5 H91 3.72(2) 4 4 ?
C17 C19 3.72(2) 4 4 ?
C14 C51 3.72(3) 4 4 ?
C43 H191 3.724(18) 4 '2 565' ?
C1 H4 3.725(18) 4 4 ?
C46 C55 3.73(3) 4 '2 665' ?
C9 C12 3.73(2) 4 4 ?
C46 H223 3.73(2) 4 . ?
C32 H192 3.73(2) 4 '2 565' ?
C16 H72 3.73(2) 4 4 ?
C62 H65 3.734(15) 4 4 ?
C55 H183 3.73(3) 4 '4 655' ?
C4 H71 3.735(17) 4 4 ?
C52 H63 3.74(3) 4 '2 655' ?
C65 H62 3.736(15) 4 4 ?
C32 H35 3.740(15) 4 4 ?
C35 H32 3.740(15) 4 4 ?
C17 H191 3.74(2) 4 4 ?
C62 H193 3.74(2) 4 '2 665' ?
Pt1 C8 3.744(18) 4 4 ?
C55 H52 3.75(2) 4 4 ?
C52 H55 3.75(2) 4 4 ?
C35 H182 3.75(2) 4 '2 565' ?
C32 H2 3.75(2) 4 4 ?
C32 C42 3.75(3) 4 4 ?
C36 H211 3.750(19) 4 '2 665' ?
C16 H35 3.75(2) 4 '2 655' ?
C64 H12 3.75(2) 4 '3 655' ?
C56 H53 3.756(10) 4 4 ?
C35 H211 3.76(2) 4 '2 665' ?
P1 H55 3.757(5) 4 '2 665' ?
C19 C64 3.76(2) 4 '2 655' ?
C53 H56 3.757(10) 4 4 ?
C33 H36 3.76(2) 4 4 ?
C34 H54 3.76(2) 4 '1 556' ?
O1 C10 3.76(2) 4 4 ?
C36 H33 3.760(18) 4 4 ?
C10 C15 3.76(3) 4 4 ?
C3 H233 3.76(2) 4 '4 455' ?
Cl1 C41 3.762(17) 4 4 ?
Cl1 O2 3.762(16) 4 4 ?
C56 H181 3.76(2) 4 '4 655' ?
Cl2 H213 3.763(7) 4 '2 665' ?
C2 H222 3.763(19) 4 . ?
C1 C18 3.77(2) 4 4 ?
C41 H44 3.767(18) 4 4 ?
C46 H2 3.770(19) 4 4 ?
C18 H231 3.771(9) 4 '4 455' ?
C14 H35 3.771(17) 4 '2 655' ?
C20 C53 3.77(2) 4 '1 556' ?
C66 H193 3.78(2) 4 '2 665' ?
C61 H64 3.78(2) 4 4 ?
C16 H71 3.78(2) 4 4 ?
C6 O2 3.78(2) 4 4 ?
Cl2 H212 3.780(8) 4 '2 665' ?
C35 H12 3.78(2) 4 '2 665' ?
C1 H53 3.782(19) 4 '1 556' ?
C19 C63 3.78(3) 4 '2 655' ?
C15 H12 3.784(17) 4 4 ?
Pt1 H36 3.785(2) 4 4 ?
C20 C66 3.79(3) 4 '1 556' ?
C33 H42 3.79(2) 4 4 ?
C12 C35 3.79(3) 4 '2 655' ?
Cl1 O1 3.789(18) 4 4 ?
C12 H92 3.789(18) 4 4 ?
C17 H201 3.79(2) 4 4 ?
C55 C62 3.79(3) 4 '2 655' ?
C35 H46 3.79(3) 4 '3 556' ?
C22 H65 3.793(8) 4 '1 556' ?
C31 H4 3.79(3) 4 '2 565' ?
C65 H91 3.79(2) 4 '1 655' ?
C18 C35 3.80(3) 4 2 ?
C33 H192 3.80(2) 4 '2 565' ?
C31 H54 3.80(3) 4 '1 556' ?
C14 C19 3.80(2) 4 '2 665' ?
C14 C18 3.80(2) 4 '4 655' ?
C17 C32 3.80(2) 4 4 ?
C5 H2 3.80(2) 4 4 ?
C1 H223 3.805(19) 4 . ?
C52 H231 3.81(3) 4 . ?
C5 C18 3.81(2) 4 4 ?
C45 C54 3.81(3) 4 '2 665' ?
C23 C63 3.81(3) 4 '3 656' ?
C21 C35 3.81(2) 4 '2 655' ?
C65 H232 3.82(2) 4 '3 655' ?
C16 H44 3.82(2) 4 '3 556' ?
C53 H91 3.82(2) 4 '1 655' ?
C65 H201 3.82(2) 4 '1 655' ?
C32 H4 3.819(17) 4 '2 565' ?
C43 H212 3.82(2) 4 . ?
C34 H231 3.82(2) 4 '2 665' ?
C1 C6 3.82(3) 4 4 ?
C20 H212 3.823(9) 4 4 ?
C51 H54 3.82(2) 4 4 ?
C14 C56 3.82(2) 4 4 ?
C31 H183 3.82(3) 4 '2 565' ?
C31 H34 3.82(3) 4 4 ?
C32 C41 3.83(3) 4 4 ?
C66 H91 3.83(2) 4 '1 655' ?
C62 H52 3.83(2) 4 4 ?
C15 C23 3.83(2) 4 4 ?
C51 H14 3.83(2) 4 4 ?
Pt1 H52 3.830(5) 4 4 ?
C46 H34 3.830(18) 4 3 ?
C18 C36 3.83(2) 4 2 ?
C23 H203 3.834(9) 4 '2 665' ?
Cl2 H44 3.834(8) 4 '3 556' ?
C18 C43 3.84(2) 4 2 ?
C18 H223 3.837(10) 4 . ?
C22 C44 3.84(2) 4 '3 556' ?
C10 C13 3.84(3) 4 4 ?
C23 H192 3.842(9) 4 '2 665' ?
C16 H222 3.84(2) 4 4 ?
C46 H212 3.843(18) 4 . ?
C4 C43 3.85(3) 4 2 ?
C41 H183 3.846(17) 4 '2 565' ?
C21 C44 3.85(2) 4 '1 656' ?
C54 H92 3.85(3) 4 '1 655' ?
C66 H63 3.856(13) 4 4 ?
C19 C65 3.86(3) 4 '2 655' ?
C55 H181 3.86(3) 4 '4 655' ?
C33 H233 3.86(2) 4 '4 455' ?
Cl2 O2 3.860(14) 4 4 ?
C23 H33 3.861(11) 4 '4 655' ?
Cl1 C34 3.86(2) 4 3 ?
C18 H233 3.861(9) 4 '4 455' ?
C3 H32 3.86(2) 4 4 ?
C34 C46 3.86(3) 4 '3 556' ?
C63 H66 3.864(14) 4 4 ?
C10 H202 3.87(2) 4 4 ?
C46 C54 3.87(3) 4 '2 665' ?
C41 H223 3.866(17) 4 . ?
C11 H14 3.87(2) 4 4 ?
C8 C19 3.87(2) 4 4 ?
C8 C22 3.87(2) 4 4 ?
Cl2 O1 3.870(14) 4 4 ?
C18 C56 3.87(3) 4 '4 455' ?
C3 C6 3.87(3) 4 4 ?
C66 H201 3.87(2) 4 '1 655' ?
C53 H34 3.87(2) 4 3 ?
C11 C23 3.87(3) 4 4 ?
C4 C42 3.88(2) 4 2 ?
C51 H63 3.880(18) 4 '2 655' ?
O1 C32 3.88(2) 4 4 ?
C10 H35 3.88(2) 4 '2 655' ?
C11 H72 3.88(2) 4 4 ?
C35 H56 3.90(2) 4 '2 665' ?
Cl2 C14 3.905(17) 4 4 ?
C42 H191 3.907(16) 4 '2 565' ?
C54 H202 3.91(2) 4 '1 655' ?
C34 H183 3.91(2) 4 '2 565' ?
C5 C9 3.91(2) 4 4 ?
C56 C66 3.91(2) 4 4 ?
C2 H231 3.913(19) 4 '4 455' ?
C62 H232 3.91(2) 4 '3 655' ?
C44 H181 3.914(19) 4 '2 565' ?
C20 H92 3.914(8) 4 4 ?
C45 H222 3.92(2) 4 3 ?
C15 H193 3.92(2) 4 '2 665' ?
C1 H71 3.920(18) 4 4 ?
O2 H212 3.921(14) 4 4 ?
C46 H36 3.92(2) 4 4 ?
C5 H183 3.927(19) 4 4 ?
C56 C61 3.93(3) 4 4 ?
C63 H193 3.93(3) 4 '2 665' ?
C44 H54 3.93(2) 4 '2 665' ?
C21 H203 3.936(9) 4 4 ?
C53 H232 3.94(2) 4 . ?
C53 H66 3.94(2) 4 4 ?
C53 H33 3.94(2) 4 '1 655' ?
C63 H203 3.95(2) 4 '1 655' ?
C19 C62 3.95(2) 4 '2 655' ?
C1 C46 3.95(3) 4 4 ?
O2 H213 3.953(14) 4 4 ?
C13 H56 3.96(2) 4 4 ?
C65 H193 3.96(2) 4 '2 665' ?
O1 C11 3.97(3) 4 4 ?
C65 H192 3.97(2) 4 '2 665' ?
C64 H71 3.97(2) 4 '2 665' ?
C10 H181 3.97(2) 4 '1 656' ?
C15 C62 3.98(3) 4 4 ?
C12 H221 3.976(17) 4 4 ?
C4 H193 3.977(15) 4 4 ?
C4 H231 3.978(18) 4 '4 455' ?
C18 C42 3.98(2) 4 2 ?
C36 H182 3.980(18) 4 '2 565' ?
C8 H191 3.981(17) 4 4 ?
C6 H53 3.981(19) 4 '1 556' ?
C64 H44 3.98(2) 4 '4 655' ?
C35 H42 3.98(2) 4 4 ?
C32 C53 3.99(3) 4 '1 556' ?
C51 H182 3.99(2) 4 '4 655' ?
C18 C66 3.989(18) 4 '4 455' ?
C15 H233 3.990(16) 4 4 ?
C32 H201 3.991(19) 4 '2 565' ?
C61 H33 3.992(18) 4 3 ?
C55 H66 3.993(18) 4 4 ?
C55 H33 4.00(2) 4 '1 655' ?
C34 C45 4.00(3) 4 '3 556' ?
C21 H44 4.003(13) 4 '1 656' ?
C5 H43 4.00(2) 4 2 ?
C21 H71 4.004(9) 4 4 ?
C53 H92 4.01(2) 4 '1 655' ?
C16 H212 4.01(2) 4 4 ?
C55 C63 4.01(3) 4 '2 655' ?
C19 C42 4.007(18) 4 2 ?
C20 C64 4.01(2) 4 '1 556' ?
C1 C7 4.01(2) 4 4 ?
C51 C62 4.01(3) 4 4 ?
P2 C53 4.009(19) 4 4 ?
C15 H211 4.01(2) 4 4 ?
C8 H56 4.013(17) 4 4 ?
C21 C46 4.01(2) 4 '1 656' ?
C4 C35 4.02(3) 4 2 ?
C4 C34 4.02(3) 4 2 ?
C21 H36 4.018(9) 4 '2 655' ?
C12 H56 4.019(14) 4 4 ?
C19 C66 4.02(2) 4 '2 655' ?
C42 C65 4.02(2) 4 '4 455' ?
C63 H43 4.02(2) 4 '4 655' ?
C45 C55 4.02(3) 4 '2 665' ?
C7 H63 4.024(10) 4 '2 655' ?
C21 H56 4.024(9) 4 4 ?
C18 H42 4.025(8) 4 2 ?
C5 O2 4.03(2) 4 4 ?
C42 H32 4.025(14) 4 4 ?
C44 H183 4.028(19) 4 '2 565' ?
C20 H232 4.028(8) 4 '2 655' ?
C65 H2 4.030(18) 4 '4 655' ?
C22 H66 4.032(9) 4 '1 556' ?
P1 C45 4.032(18) 4 4 ?
P2 C65 4.033(19) 4 4 ?
C66 H2 4.033(18) 4 '4 655' ?
C45 H211 4.03(2) 4 . ?
C8 H213 4.037(17) 4 4 ?
C9 H181 4.039(16) 4 '1 656' ?
C7 C11 4.04(3) 4 4 ?
P1 C43 4.05(2) 4 4 ?
C22 C43 4.05(2) 4 '3 556' ?
C9 C15 4.05(2) 4 4 ?
P2 C55 4.059(18) 4 4 ?
C33 C46 4.06(3) 4 '3 556' ?
C34 C52 4.06(4) 4 '3 556' ?
C19 C23 4.063(14) 4 '2 655' ?
C23 C53 4.07(3) 4 '1 656' ?
C44 C65 4.07(3) 4 '4 455' ?
C31 C46 4.07(4) 4 4 ?
C33 C45 4.07(3) 4 '3 556' ?
C19 C61 4.07(2) 4 '2 655' ?
P2 C63 4.083(17) 4 4 ?
C20 C33 4.08(2) 4 2 ?
C54 C63 4.09(3) 4 '2 655' ?
P1 C35 4.09(2) 4 4 ?
Pt1 C52 4.09(3) 4 4 ?
Cl2 H56 4.097(6) 4 '2 665' ?
C21 C36 4.11(2) 4 '2 655' ?
P1 C3 4.11(2) 4 4 ?
C35 C45 4.11(3) 4 '3 556' ?
Pt1 C36 4.109(18) 4 4 ?
C18 C23 4.111(13) 4 '4 455' ?
C13 C35 4.12(3) 4 '2 655' ?
C3 C23 4.12(2) 4 '4 455' ?
C3 C43 4.12(3) 4 2 ?
P1 C5 4.12(2) 4 4 ?
C54 C62 4.13(3) 4 '2 655' ?
Cl1 C2 4.127(18) 4 4 ?
C13 O2 4.13(2) 4 4 ?
C19 C43 4.13(2) 4 2 ?
C18 C55 4.13(3) 4 '4 455' ?
C13 C64 4.13(3) 4 '3 656' ?
P2 C11 4.14(2) 4 4 ?
C11 C35 4.14(3) 4 '2 655' ?
C13 C18 4.14(2) 4 '4 655' ?
P2 C13 4.14(2) 4 4 ?
C23 C32 4.15(2) 4 '4 655' ?
C3 O1 4.15(2) 4 4 ?
C44 C64 4.16(3) 4 '4 455' ?
C12 C64 4.16(3) 4 '3 656' ?
C36 C55 4.16(3) 4 '2 665' ?
P1 C33 4.17(2) 4 4 ?
C7 C63 4.17(3) 4 '2 655' ?
C17 C53 4.17(2) 4 '1 556' ?
C14 C62 4.17(3) 4 4 ?
C9 C44 4.17(2) 4 '3 556' ?
Cl2 C35 4.18(2) 4 4 ?
Pt1 H34 4.185(6) 4 3 ?
Cl2 H14 4.185(5) 4 4 ?
O1 C53 4.19(2) 4 '1 556' ?
C36 C56 4.19(3) 4 '2 665' ?
C5 C53 4.19(3) 4 '1 556' ?
C2 C46 4.20(3) 4 4 ?
C41 C55 4.20(3) 4 '2 665' ?
C15 C52 4.21(4) 4 4 ?
O1 C15 4.21(2) 4 4 ?
P2 C8 4.209(18) 4 4 ?
C2 C23 4.23(2) 4 '4 455' ?
Cl2 H92 4.232(7) 4 4 ?
Cl2 H193 4.239(5) 4 '2 665' ?
C16 C23 4.24(2) 4 4 ?
Cl1 C8 4.246(19) 4 4 ?
Pt1 H71 4.2488(16) 4 4 ?
O2 C22 4.26(2) 4 4 ?
C17 C41 4.26(3) 4 4 ?
O1 C19 4.265(18) 4 4 ?
C16 C61 4.27(3) 4 4 ?
C52 C62 4.27(3) 4 4 ?
C17 C18 4.27(2) 4 4 ?
C11 C44 4.29(3) 4 '3 556' ?
Cl1 C12 4.291(17) 4 . ?
C1 C36 4.29(3) 4 4 ?
Cl1 C53 4.30(2) 4 4 ?
C20 C34 4.30(3) 4 2 ?
P2 H182 4.300(4) 4 '4 655' ?
C3 C35 4.30(3) 4 2 ?
C13 C19 4.30(2) 4 '2 665' ?
Cl1 C56 4.30(2) 4 4 ?
C35 C46 4.31(3) 4 '3 556' ?
Cl1 C5 4.31(2) 4 4 ?
C33 C53 4.31(3) 4 '1 556' ?
Cl2 C55 4.31(2) 4 '2 665' ?
C7 C62 4.31(3) 4 '2 655' ?
C53 C66 4.31(3) 4 4 ?
P1 C8 4.318(18) 4 4 ?
C2 C6 4.32(2) 4 4 ?
C20 C61 4.32(2) 4 '1 556' ?
C10 C44 4.32(3) 4 '3 556' ?
Cl1 C63 4.333(13) 4 '2 655' ?
C4 C8 4.33(2) 4 4 ?
Cl1 C7 4.334(13) 4 4 ?
Cl2 C45 4.335(17) 4 '3 556' ?
C1 O2 4.34(2) 4 4 ?
C10 C14 4.34(3) 4 4 ?
C4 C36 4.34(2) 4 2 ?
C3 C19 4.34(2) 4 4 ?
C32 C45 4.34(3) 4 '3 556' ?
C8 C12 4.34(2) 4 4 ?
C31 C43 4.35(4) 4 4 ?
C9 C53 4.35(3) 4 '1 556' ?
C36 C46 4.35(3) 4 4 ?
C11 C56 4.36(3) 4 4 ?
C51 C65 4.36(3) 4 4 ?
C3 C42 4.36(3) 4 2 ?
C20 C21 4.363(12) 4 4 ?
P2 O1 4.371(15) 4 4 ?
C53 C63 4.37(3) 4 '2 655' ?
C15 C21 4.37(2) 4 4 ?
C56 C62 4.38(3) 4 '2 655' ?
C13 C22 4.38(2) 4 4 ?
C33 C62 4.39(3) 4 '3 556' ?
C56 C63 4.39(3) 4 '2 655' ?
C23 C33 4.40(2) 4 '4 655' ?
C15 C55 4.40(3) 4 4 ?
C12 C44 4.40(3) 4 '3 556' ?
Cl1 C22 4.403(10) 4 . ?
C10 C20 4.40(2) 4 4 ?
C23 C35 4.408(16) 4 '2 655' ?
C18 C44 4.41(2) 4 2 ?
C12 C34 4.41(3) 4 '2 655' ?
C4 C33 4.41(3) 4 2 ?
Cl2 C44 4.42(2) 4 '3 556' ?
Cl2 C7 4.421(16) 4 '2 665' ?
C35 C42 4.42(3) 4 4 ?
C22 C46 4.42(2) 4 '1 656' ?
C1 C22 4.43(2) 4 . ?
C36 C45 4.43(2) 4 '3 556' ?
Cl2 C8 4.436(18) 4 4 ?
C42 C64 4.44(3) 4 '4 455' ?
P1 O2 4.443(14) 4 4 ?
Cl2 C11 4.47(2) 4 4 ?
Pt1 C56 4.53(2) 4 4 ?
Cl2 C32 4.55(2) 4 4 ?
Pt1 C55 4.549(16) 4 '2 665' ?
Cl2 C56 4.558(19) 4 '2 665' ?
P2 C54 4.56(2) 4 4 ?
Pt1 C14 4.566(16) 4 4 ?
Cl1 C61 4.57(2) 4 4 ?
Cl1 C35 4.58(3) 4 3 ?
P2 C64 4.58(2) 4 4 ?
P1 C44 4.59(2) 4 4 ?
P1 C4 4.590(15) 4 4 ?
Cl2 C41 4.594(19) 4 4 ?
P1 P2 4.596(6) 4 4 ?
Cl1 C45 4.60(2) 4 4 ?
Pt1 C2 4.601(16) 4 4 ?
Cl2 C63 4.60(2) 4 4 ?
Pt1 C7 4.617(14) 4 4 ?
Cl1 Cl2 4.630(10) 4 4 ?
P2 C12 4.649(15) 4 4 ?
P1 C34 4.68(2) 4 4 ?
P1 C55 4.74(2) 4 '2 665' ?
Pt1 C42 4.777(17) 4 4 ?
Pt1 C66 4.784(17) 4 4 ?
Pt1 C5 4.79(2) 4 4 ?
Pt1 C32 4.80(2) 4 4 ?
Pt1 C9 4.820(15) 4 4 ?
Pt1 C45 4.84(2) 4 4 ?
Pt1 C11 4.87(2) 4 4 ?
Pt1 C34 4.87(2) 4 3 ?
Pt1 C63 4.90(2) 4 4 ?

_atom_sites_solution_primary     ?
_atom_sites_solution_secondary   ?
_atom_sites_solution_hydrogens   ?

_geom_special_details            ?


_cell_special_details            
;      ?
;

_exptl_special_details           
;      ?
;

_diffrn_special_details          
;      ?
;

_chemical_compound_source        ?
_chemical_name_systematic        ?
_chemical_name_common            ?
_chemical_formula_analytical     ?
_chemical_formula_structural     ?

_exptl_crystal_F_000             2584

loop_
_diffrn_standard_refln_index_h
_diffrn_standard_refln_index_k
_diffrn_standard_refln_index_l
? ? ?
loop_
_diffrn_attenuator_code
_diffrn_attenuator_scale
? ?

_reflns_limit_h_min              0
_reflns_limit_h_max              16
_reflns_limit_k_min              0
_reflns_limit_k_max              21
_reflns_limit_l_min              0
_reflns_limit_l_max              21
_reflns_number_observed          ?
_reflns_d_resolution_high        .799
_reflns_d_resolution_low         10.572

_diffrn_reflns_av_sigmaI/netI    ?
_diffrn_reflns_theta_min         4.18
_diffrn_reflns_reduction_process ?

_diffrn_ambient_temperature      293
_diffrn_radiation_source         ?
_diffrn_radiation_monochromator  ?
_diffrn_radiation_detector       ?

_refine_ls_extinction_expression 'Eq22 p292 "Cryst. Comp." Munksgaard 1970'
_refine_ls_matrix_type           full
_refine_ls_number_restraints     46
_refine_ls_number_constraints    0
_refine_ls_R_factor_all          .083
_refine_ls_wR_factor_all         .089
_refine_ls_goodness_of_fit_all   1.25
_refine_ls_shift/su_mean         .003



#==========================================================================
#       Structure Factor lists should be submitted as separate files
#==========================================================================

#data_<structure> # but for xtal use the refln data is needed in same block

loop_
_refln_index_h
_refln_index_k
_refln_index_l
_refln_F_meas
_refln_F_calc
_refln_F_sigma
_refln_F_squared_meas
_refln_F_squared_calc
_refln_F_squared_sigma
_refln_observed_status
? ? ? ? ? ? ? ? ? ?


#-end-end-end-end-end-end-end-end-end-end-end-end-end-end-end-end-end-end


