####################################################################### 
# 
# This file contains crystal structure data downloaded from the 
# Cambridge Structural Database (CSD) hosted by the Cambridge 
# Crystallographic Data Centre (CCDC).
# 
# Full information about CCDC data access policies and citation 
# guidelines are available at http://www.ccdc.cam.ac.uk/. 
# 
# Audit and citation data items have may been added by the CCDC. 
# Please retain this information to preserve the provenance of 
# this file and to allow appropriate attribution of the data. 
# 
#######################################################################

data_t-[3]PtCl2
_audit_block_doi                 10.5517/ccnltfg
_database_code_depnum_ccdc_archive 'CCDC 613906'
loop_
_citation_id
_citation_doi
_citation_year
1 10.1002/ejic.200600848 2007
_audit_update_record             
;
2006-07-06 deposited with the CCDC.
2014-12-02 downloaded from the CCDC.
;

_audit_creation_method           SHELXL-97
_chemical_name_systematic        
;
?
;
_chemical_name_common            ?
_chemical_formula_moiety         'C26 H40 Cl2 O2 P2 Pt1'
_chemical_formula_sum            'C26 H40 Cl2 O2 P2 Pt1'
_chemical_formula_weight         712.53

loop_
_atom_type_symbol
_atom_type_description
_atom_type_scat_dispersion_real
_atom_type_scat_dispersion_imag
_atom_type_scat_source
C C 0.0033 0.0016 'International Tables Vol C Tables 4.2.6.8 and 6.1.1.4'
H H 0.0000 0.0000 'International Tables Vol C Tables 4.2.6.8 and 6.1.1.4'
O O 0.0106 0.0060 'International Tables Vol C Tables 4.2.6.8 and 6.1.1.4'
P P 0.1023 0.0942 'International Tables Vol C Tables 4.2.6.8 and 6.1.1.4'
Cl Cl 0.1484 0.1585 'International Tables Vol C Tables 4.2.6.8 and 6.1.1.4'
Pt Pt -1.7033 8.3905 'International Tables Vol C Tables 4.2.6.8 and 6.1.1.4'

_symmetry_cell_setting           Monoclinic
_symmetry_space_group_name_Hall  '-P 2yn'
_symmetry_space_group_name_H-M   P21/n

loop_
_symmetry_equiv_pos_as_xyz
'x, y, z'
'-x+1/2, y+1/2, -z+1/2'
'-x, -y, -z'
'x-1/2, -y-1/2, z-1/2'

_cell_length_a                   14.8880(2)
_cell_length_b                   11.2034(2)
_cell_length_c                   17.3298(2)
_cell_angle_alpha                90
_cell_angle_beta                 94.4762(9)
_cell_angle_gamma                90
_cell_volume                     2881.73(7)
_cell_formula_units_Z            4
_cell_measurement_temperature    173(2)
_cell_measurement_reflns_used    25293
_cell_measurement_theta_min      1.74
_cell_measurement_theta_max      25.34

_exptl_crystal_description       plate
_exptl_crystal_colour            'pale yellow'
_exptl_crystal_size_max          0.46
_exptl_crystal_size_mid          0.21
_exptl_crystal_size_min          0.15
_exptl_crystal_density_meas      ?
_exptl_crystal_density_diffrn    1.698
_exptl_crystal_density_method    'not measured'
_exptl_crystal_F_000             1464
_exptl_absorpt_coefficient_mu    5.190
_exptl_absorpt_correction_type   multi-scan
_exptl_absorpt_correction_T_min  ?
_exptl_absorpt_correction_T_max  ?

_exptl_special_details           
;
?
;

_diffrn_ambient_temperature      173(1)
_diffrn_radiation_wavelength     0.71073
_diffrn_radiation_type           MoK\a
_diffrn_radiation_source         'fine-focus sealed tube'
_diffrn_radiation_monochromator  graphite
_diffrn_measurement_device_type  '\k-geometry diffractometer'
_diffrn_measurement_method       'phi- and omega-rotation'
_diffrn_detector_area_resol_mean 18
_diffrn_standards_number         ?
_diffrn_standards_interval_count ?
_diffrn_standards_interval_time  ?
_diffrn_standards_decay_%        0
_diffrn_reflns_number            9321
_diffrn_reflns_av_R_equivalents  0.0286
_diffrn_reflns_av_sigmaI/netI    0.0344
_diffrn_reflns_limit_h_min       -17
_diffrn_reflns_limit_h_max       17
_diffrn_reflns_limit_k_min       -13
_diffrn_reflns_limit_k_max       10
_diffrn_reflns_limit_l_min       -20
_diffrn_reflns_limit_l_max       20
_diffrn_reflns_theta_min         1.74
_diffrn_reflns_theta_max         25.34
_reflns_number_total             5265
_reflns_number_gt                4430
_reflns_threshold_expression     >2sigma(I)

_computing_data_collection       'Kappa-CCD Control Software (Nonius, 2001a)'
_computing_cell_refinement       'DENZO (Nonius, 2001b)'
_computing_data_reduction        'DENZO (Nonius, 2001b)'
_computing_structure_solution    'SHELXS-97 (Sheldrick, 1990)'
_computing_structure_refinement  'SHELXL-97 (Sheldrick, 1997)'
_computing_molecular_graphics    'PLATON (Spek, 2001)'
_computing_publication_material  'PLATON (Spek, 2001)'

_refine_special_details          
;
Refinement of F^2^ against ALL reflections. The weighted R-factor wR and
goodness of fit S are based on F^2^, conventional R-factors R are based
on F, with F set to zero for negative F^2^. The threshold expression of
F^2^ > 2sigma(F^2^) is used only for calculating R-factors(gt) etc. and is
not relevant to the choice of reflections for refinement. R-factors based
on F^2^ are statistically about twice as large as those based on F, and R-
factors based on ALL data will be even larger.
;

_refine_ls_structure_factor_coef Fsqd
_refine_ls_matrix_type           full
_refine_ls_weighting_scheme      
'w=1/[\s^2^(Fo^2^)+(0.0349P)^2^+5.1279P] where P=(Fo^2^+2Fc^2^)/3'
_atom_sites_solution_primary     direct
_atom_sites_solution_secondary   difmap
_atom_sites_solution_hydrogens   geom
_refine_ls_hydrogen_treatment    constr
_refine_ls_extinction_method     none
_refine_ls_extinction_coef       ?
_refine_ls_number_reflns         5265
_refine_ls_number_parameters     306
_refine_ls_number_restraints     0
_refine_ls_R_factor_all          0.0412
_refine_ls_R_factor_gt           0.0301
_refine_ls_wR_factor_ref         0.0751
_refine_ls_wR_factor_gt          0.0702
_refine_ls_goodness_of_fit_ref   1.041
_refine_ls_restrained_S_all      1.041
_refine_ls_shift/su_max          0.001
_refine_ls_shift/su_mean         0.000

loop_
_atom_site_label
_atom_site_type_symbol
_atom_site_fract_x
_atom_site_fract_y
_atom_site_fract_z
_atom_site_U_iso_or_equiv
_atom_site_adp_type
_atom_site_occupancy
_atom_site_calc_flag
_atom_site_refinement_flags
_atom_site_disorder_assembly
_atom_site_disorder_group
Pt1 Pt 0.532794(11) 0.127514(17) 0.298223(10) 0.03372(8) Uani 1 d . . .
P1 P 0.57275(7) 0.27340(11) 0.38927(6) 0.0312(3) Uani 1 d . . .
P2 P 0.49009(8) -0.01381(12) 0.20382(7) 0.0363(3) Uani 1 d . . .
Cl1 Cl 0.68186(8) 0.08759(14) 0.28225(9) 0.0556(4) Uani 1 d . . .
Cl2 Cl 0.38468(8) 0.18515(15) 0.30444(9) 0.0624(4) Uani 1 d . . .
C006 C 0.5745(4) -0.1281(5) 0.1873(3) 0.0493(13) Uani 1 d . . .
H006 H 0.6308 -0.0843 0.1768 0.059 Uiso 1 calc R . .
C007 C 0.3613(4) 0.5604(5) 0.2010(4) 0.0577(15) Uani 1 d . . .
H007 H 0.3141 0.6054 0.2207 0.069 Uiso 1 calc R . .
O008 O 0.4753(2) 0.0451(3) 0.11868(18) 0.0484(9) Uani 1 d . . .
O009 O 0.5597(2) 0.4057(3) 0.35380(19) 0.0433(8) Uani 1 d . . .
C010 C 0.5052(3) 0.4607(4) 0.2230(3) 0.0398(11) Uani 1 d . . .
C011 C 0.6912(3) 0.2722(5) 0.4276(3) 0.0433(12) Uani 1 d . . .
H011 H 0.7280 0.2624 0.3822 0.052 Uiso 1 calc R . .
C012 C 0.5533(3) 0.2304(5) 0.0935(3) 0.0391(11) Uani 1 d . . .
C013 C 0.3692(4) -0.1297(6) 0.2964(3) 0.0626(17) Uani 1 d . . .
H01A H 0.4214 -0.1735 0.3199 0.094 Uiso 1 calc R . .
H01B H 0.3154 -0.1799 0.2966 0.094 Uiso 1 calc R . .
H01C H 0.3604 -0.0568 0.3261 0.094 Uiso 1 calc R . .
C6 C 0.5695(3) 0.3497(4) 0.1130(3) 0.0377(11) Uani 1 d . . .
C015 C 0.7124(4) 0.1656(6) 0.4803(4) 0.0678(18) Uani 1 d . . .
H01D H 0.6872 0.0931 0.4554 0.102 Uiso 1 calc R . .
H01E H 0.6857 0.1780 0.5296 0.102 Uiso 1 calc R . .
H01F H 0.7778 0.1570 0.4897 0.102 Uiso 1 calc R . .
C7 C 0.4989(3) 0.4246(5) 0.1458(3) 0.0400(11) Uani 1 d . . .
C017 C 0.3855(4) -0.0972(6) 0.2140(3) 0.0584(16) Uani 1 d . . .
H017 H 0.3977 -0.1761 0.1900 0.070 Uiso 1 calc R . .
C018 C 0.3559(4) 0.5285(6) 0.1244(4) 0.0608(16) Uani 1 d . . .
C019 C 0.7185(4) 0.3333(7) 0.0690(4) 0.0635(17) Uani 1 d . . .
H019 H 0.7754 0.3683 0.0619 0.076 Uiso 1 calc R . .
C020 C 0.4243(3) 0.4616(5) 0.0969(3) 0.0534(14) Uani 1 d . . .
H020 H 0.4208 0.4399 0.0438 0.064 Uiso 1 calc R . .
C021 C 0.5084(4) 0.2850(5) 0.4754(3) 0.0494(13) Uani 1 d . . .
H021 H 0.5508 0.3173 0.5180 0.059 Uiso 1 calc R . .
C022 C 0.6200(4) 0.1661(5) 0.0594(3) 0.0504(13) Uani 1 d . . .
H022 H 0.6087 0.0858 0.0441 0.060 Uiso 1 calc R . .
C024 C 0.7018(4) 0.2172(6) 0.0476(4) 0.0625(16) Uani 1 d . . .
H024 H 0.7467 0.1720 0.0246 0.075 Uiso 1 calc R . .
C026 C 0.4653(3) 0.1721(5) 0.1081(3) 0.0460(12) Uani 1 d . . .
H02A H 0.4419 0.2076 0.1549 0.055 Uiso 1 calc R . .
H02B H 0.4209 0.1879 0.0637 0.055 Uiso 1 calc R . .
C027 C 0.4354(3) 0.5274(5) 0.2499(3) 0.0490(13) Uani 1 d . . .
H027 H 0.4385 0.5508 0.3027 0.059 Uiso 1 calc R . .
C028 C 0.4302(4) 0.3707(6) 0.4662(4) 0.0710(19) Uani 1 d . . .
H02C H 0.4498 0.4454 0.4434 0.107 Uiso 1 calc R . .
H02D H 0.4082 0.3871 0.5170 0.107 Uiso 1 calc R . .
H02E H 0.3816 0.3353 0.4323 0.107 Uiso 1 calc R . .
C030 C 0.6530(4) 0.3989(5) 0.1007(3) 0.0528(14) Uani 1 d . . .
H030 H 0.6649 0.4797 0.1145 0.063 Uiso 1 calc R . .
C031 C 0.5859(3) 0.4283(5) 0.2767(3) 0.0468(12) Uani 1 d . . .
H03A H 0.6151 0.3562 0.2570 0.056 Uiso 1 calc R . .
H03B H 0.6302 0.4944 0.2783 0.056 Uiso 1 calc R . .
C033 C 0.7209(4) 0.3899(6) 0.4666(4) 0.0692(19) Uani 1 d . . .
H03C H 0.7085 0.4559 0.4302 0.104 Uiso 1 calc R . .
H03D H 0.7856 0.3869 0.4820 0.104 Uiso 1 calc R . .
H03E H 0.6875 0.4024 0.5125 0.104 Uiso 1 calc R . .
C034 C 0.5981(4) -0.2045(6) 0.2588(4) 0.0696(17) Uani 1 d . . .
H03F H 0.6083 -0.1529 0.3043 0.104 Uiso 1 calc R . .
H03G H 0.6528 -0.2505 0.2516 0.104 Uiso 1 calc R . .
H03H H 0.5482 -0.2594 0.2663 0.104 Uiso 1 calc R . .
C038 C 0.3071(4) -0.0536(9) 0.1671(4) 0.098(3) Uani 1 d . . .
H03I H 0.3196 -0.0538 0.1124 0.148 Uiso 1 calc R . .
H03J H 0.2933 0.0279 0.1829 0.148 Uiso 1 calc R . .
H03K H 0.2554 -0.1055 0.1744 0.148 Uiso 1 calc R . .
C039 C 0.5506(4) -0.2064(6) 0.1164(4) 0.074(2) Uani 1 d . . .
H03L H 0.5314 -0.1557 0.0720 0.111 Uiso 1 calc R . .
H03M H 0.5016 -0.2608 0.1272 0.111 Uiso 1 calc R . .
H03N H 0.6036 -0.2529 0.1044 0.111 Uiso 1 calc R . .
C040 C 0.4798(5) 0.1611(6) 0.5014(4) 0.0731(19) Uani 1 d . . .
H04A H 0.5327 0.1089 0.5073 0.110 Uiso 1 calc R . .
H04B H 0.4356 0.1275 0.4625 0.110 Uiso 1 calc R . .
H04C H 0.4529 0.1676 0.5511 0.110 Uiso 1 calc R . .

loop_
_atom_site_aniso_label
_atom_site_aniso_U_11
_atom_site_aniso_U_22
_atom_site_aniso_U_33
_atom_site_aniso_U_23
_atom_site_aniso_U_13
_atom_site_aniso_U_12
Pt1 0.02547(10) 0.03738(12) 0.03773(11) -0.00938(8) -0.00129(7) -0.00013(7)
P1 0.0279(6) 0.0315(6) 0.0335(6) -0.0058(5) -0.0023(5) 0.0032(5)
P2 0.0341(6) 0.0400(7) 0.0347(6) -0.0083(5) 0.0013(5) -0.0087(6)
Cl1 0.0289(6) 0.0657(9) 0.0717(9) -0.0319(7) 0.0018(6) 0.0008(6)
Cl2 0.0277(6) 0.0726(10) 0.0856(10) -0.0294(8) -0.0041(6) 0.0060(7)
C006 0.048(3) 0.045(3) 0.055(3) -0.016(3) 0.003(2) -0.004(3)
C007 0.040(3) 0.045(3) 0.088(5) 0.009(3) 0.004(3) 0.006(3)
O008 0.062(2) 0.046(2) 0.0368(18) -0.0033(15) 0.0052(16) -0.0161(18)
O009 0.052(2) 0.0353(19) 0.0415(18) 0.0000(15) -0.0022(16) 0.0089(16)
C010 0.033(2) 0.035(3) 0.051(3) 0.010(2) -0.005(2) -0.003(2)
C011 0.028(2) 0.053(3) 0.047(3) -0.011(2) -0.011(2) 0.009(2)
C012 0.032(2) 0.049(3) 0.035(2) 0.012(2) -0.0025(19) -0.004(2)
C013 0.067(4) 0.064(4) 0.060(4) 0.002(3) 0.023(3) -0.014(3)
C6 0.035(2) 0.043(3) 0.035(2) 0.014(2) -0.004(2) -0.005(2)
C015 0.059(4) 0.077(4) 0.064(4) 0.002(3) -0.018(3) 0.022(3)
C7 0.034(2) 0.036(3) 0.049(3) 0.010(2) 0.000(2) -0.006(2)
C017 0.052(3) 0.078(4) 0.046(3) -0.009(3) 0.012(3) -0.030(3)
C018 0.048(3) 0.050(4) 0.081(4) 0.009(3) -0.014(3) 0.004(3)
C019 0.037(3) 0.079(5) 0.076(4) 0.022(4) 0.015(3) -0.005(3)
C020 0.043(3) 0.057(4) 0.058(3) 0.007(3) -0.008(3) 0.000(3)
C021 0.046(3) 0.061(4) 0.042(3) -0.010(3) 0.005(2) -0.001(3)
C022 0.051(3) 0.046(3) 0.055(3) 0.003(3) 0.012(3) -0.002(3)
C024 0.046(3) 0.072(5) 0.072(4) 0.014(3) 0.018(3) 0.009(3)
C026 0.037(3) 0.054(3) 0.047(3) 0.004(2) 0.002(2) -0.014(2)
C027 0.043(3) 0.048(3) 0.055(3) 0.008(3) 0.002(2) 0.003(3)
C028 0.048(3) 0.083(5) 0.084(5) -0.029(4) 0.020(3) 0.011(3)
C030 0.040(3) 0.052(4) 0.066(4) 0.010(3) 0.005(3) -0.012(3)
C031 0.040(3) 0.052(3) 0.048(3) 0.010(3) -0.001(2) 0.001(3)
C033 0.040(3) 0.072(4) 0.092(5) -0.035(4) -0.018(3) 0.001(3)
C034 0.064(4) 0.048(4) 0.095(5) -0.005(3) -0.001(3) 0.008(3)
C038 0.041(4) 0.162(9) 0.090(5) 0.015(6) -0.006(3) -0.019(5)
C039 0.064(4) 0.080(5) 0.079(4) -0.047(4) 0.010(3) -0.003(4)
C040 0.081(5) 0.079(5) 0.063(4) 0.009(3) 0.026(4) -0.015(4)

_geom_special_details            
;
All esds (except the esd in the dihedral angle between two l.s. planes)
are estimated using the full covariance matrix. The cell esds are taken
into account individually in the estimation of esds in distances, angles
and torsion angles; correlations between esds in cell parameters are only
used when they are defined by crystal symmetry. An approximate (isotropic)
treatment of cell esds is used for estimating esds involving l.s. planes.
;

loop_
_geom_bond_atom_site_label_1
_geom_bond_atom_site_label_2
_geom_bond_distance
_geom_bond_site_symmetry_2
_geom_bond_publ_flag
Pt1 Cl1 2.3017(12) . ?
Pt1 Cl2 2.3083(13) . ?
Pt1 P1 2.3170(11) . ?
Pt1 P2 2.3292(12) . ?
P1 O009 1.610(3) . ?
P1 C011 1.836(4) . ?
P1 C021 1.840(5) . ?
P2 O008 1.616(3) . ?
P2 C006 1.832(5) . ?
P2 C017 1.836(5) . ?
C006 C034 1.523(8) . ?
C006 C039 1.530(7) . ?
C007 C018 1.371(8) . ?
C007 C027 1.388(7) . ?
O008 C026 1.441(7) . ?
O009 C031 1.443(6) . ?
C010 C027 1.389(7) . ?
C010 C7 1.394(7) . ?
C010 C031 1.506(6) . ?
C011 C015 1.521(8) . ?
C011 C033 1.530(7) . ?
C012 C022 1.395(7) . ?
C012 C6 1.395(7) . ?
C012 C026 1.503(7) . ?
C013 C017 1.511(8) . ?
C6 C030 1.391(7) . ?
C6 C7 1.491(7) . ?
C7 C020 1.406(7) . ?
C017 C038 1.455(9) . ?
C018 C020 1.379(8) . ?
C019 C030 1.369(8) . ?
C019 C024 1.370(9) . ?
C021 C028 1.508(8) . ?
C021 C040 1.530(8) . ?
C022 C024 1.376(8) . ?

loop_
_geom_angle_atom_site_label_1
_geom_angle_atom_site_label_2
_geom_angle_atom_site_label_3
_geom_angle
_geom_angle_site_symmetry_1
_geom_angle_site_symmetry_3
_geom_angle_publ_flag
Cl1 Pt1 Cl2 173.49(6) . . ?
Cl1 Pt1 P1 91.16(4) . . ?
Cl2 Pt1 P1 88.07(4) . . ?
Cl1 Pt1 P2 89.79(5) . . ?
Cl2 Pt1 P2 90.78(5) . . ?
P1 Pt1 P2 177.91(4) . . ?
O009 P1 C011 103.2(2) . . ?
O009 P1 C021 100.9(2) . . ?
C011 P1 C021 104.7(2) . . ?
O009 P1 Pt1 111.86(13) . . ?
C011 P1 Pt1 115.47(17) . . ?
C021 P1 Pt1 118.68(19) . . ?
O008 P2 C006 100.9(2) . . ?
O008 P2 C017 103.8(2) . . ?
C006 P2 C017 104.9(3) . . ?
O008 P2 Pt1 111.97(14) . . ?
C006 P2 Pt1 115.56(17) . . ?
C017 P2 Pt1 117.75(19) . . ?
C034 C006 C039 110.8(5) . . ?
C034 C006 P2 112.5(4) . . ?
C039 C006 P2 114.0(4) . . ?
C018 C007 C027 120.4(6) . . ?
C026 O008 P2 121.7(3) . . ?
C031 O009 P1 118.8(3) . . ?
C027 C010 C7 118.8(4) . . ?
C027 C010 C031 120.3(5) . . ?
C7 C010 C031 120.9(5) . . ?
C015 C011 C033 111.9(5) . . ?
C015 C011 P1 111.8(4) . . ?
C033 C011 P1 112.9(4) . . ?
C022 C012 C6 118.8(5) . . ?
C022 C012 C026 120.4(5) . . ?
C6 C012 C026 120.8(5) . . ?
C030 C6 C012 118.8(5) . . ?
C030 C6 C7 120.0(5) . . ?
C012 C6 C7 121.2(4) . . ?
C010 C7 C020 118.9(5) . . ?
C010 C7 C6 122.1(4) . . ?
C020 C7 C6 119.0(5) . . ?
C038 C017 C013 115.3(6) . . ?
C038 C017 P2 115.2(5) . . ?
C013 C017 P2 114.4(4) . . ?
C007 C018 C020 119.1(5) . . ?
C030 C019 C024 119.9(6) . . ?
C018 C020 C7 121.5(6) . . ?
C028 C021 C040 112.3(5) . . ?
C028 C021 P1 114.0(4) . . ?
C040 C021 P1 110.4(4) . . ?
C024 C022 C012 121.1(6) . . ?
C019 C024 C022 119.8(6) . . ?
O008 C026 C012 111.6(4) . . ?
C007 C027 C010 121.2(5) . . ?
C019 C030 C6 121.4(6) . . ?
O009 C031 C010 110.7(4) . . ?

_diffrn_measured_fraction_theta_max 0.946
_diffrn_reflns_theta_full        25.34
_diffrn_measured_fraction_theta_full 0.946
_refine_diff_density_max         0.720
_refine_diff_density_min         -1.394
_refine_diff_density_rms         0.107
