####################################################################### 
# 
# This file contains crystal structure data downloaded from the 
# Cambridge Structural Database (CSD) hosted by the Cambridge 
# Crystallographic Data Centre (CCDC).
# 
# Full information about CCDC data access policies and citation 
# guidelines are available at http://www.ccdc.cam.ac.uk/. 
# 
# Audit and citation data items have may been added by the CCDC. 
# Please retain this information to preserve the provenance of 
# this file and to allow appropriate attribution of the data. 
# 
#######################################################################

data_dale4
_audit_block_doi                 10.5517/ccq6k4l
_database_code_depnum_ccdc_archive 'CCDC 661699'
loop_
_citation_id
_citation_doi
_citation_year
1 10.1002/ejic.200800436 2008
_audit_update_record             
;
2007-09-20 deposited with the CCDC.
2014-12-02 downloaded from the CCDC.
;

_audit_creation_method           SHELXL-97
_chemical_name_systematic        
;
?
;
_chemical_name_common            ?
_chemical_melting_point          ?
_chemical_formula_moiety         ?
_chemical_formula_sum            'C32 H36 Cl2 O3 P2 Pt'
_chemical_formula_weight         796.54

loop_
_atom_type_symbol
_atom_type_description
_atom_type_scat_dispersion_real
_atom_type_scat_dispersion_imag
_atom_type_scat_source
C C 0.0033 0.0016 'International Tables Vol C Tables 4.2.6.8 and 6.1.1.4'
H H 0.0000 0.0000 'International Tables Vol C Tables 4.2.6.8 and 6.1.1.4'
O O 0.0106 0.0060 'International Tables Vol C Tables 4.2.6.8 and 6.1.1.4'
P P 0.1023 0.0942 'International Tables Vol C Tables 4.2.6.8 and 6.1.1.4'
Cl Cl 0.1484 0.1585 'International Tables Vol C Tables 4.2.6.8 and 6.1.1.4'
Pt Pt -1.7033 8.3905 'International Tables Vol C Tables 4.2.6.8 and 6.1.1.4'

_symmetry_cell_setting           Monoclinic
_symmetry_space_group_name_H-M   P2(1)/n

loop_
_symmetry_equiv_pos_as_xyz
'x, y, z'
'-x+1/2, y+1/2, -z+1/2'
'-x, -y, -z'
'x-1/2, -y-1/2, z-1/2'

_cell_length_a                   16.496(3)
_cell_length_b                   10.080(2)
_cell_length_c                   19.789(4)
_cell_angle_alpha                90.00
_cell_angle_beta                 109.79(3)
_cell_angle_gamma                90.00
_cell_volume                     3096.4(11)
_cell_formula_units_Z            4
_cell_measurement_temperature    293(2)
_cell_measurement_reflns_used    ?
_cell_measurement_theta_min      ?
_cell_measurement_theta_max      ?

_exptl_crystal_description       ?
_exptl_crystal_colour            ?
_exptl_crystal_size_max          ?
_exptl_crystal_size_mid          ?
_exptl_crystal_size_min          ?
_exptl_crystal_density_meas      ?
_exptl_crystal_density_diffrn    1.709
_exptl_crystal_density_method    'not measured'
_exptl_crystal_F_000             1576
_exptl_absorpt_coefficient_mu    4.840
_exptl_absorpt_correction_type   none
_exptl_absorpt_correction_T_min  ?
_exptl_absorpt_correction_T_max  ?
_exptl_absorpt_process_details   ?

_exptl_special_details           
;
?
;

_diffrn_ambient_temperature      293(2)
_diffrn_radiation_wavelength     0.71073
_diffrn_radiation_type           MoK\a
_diffrn_radiation_source         'fine-focus sealed tube'
_diffrn_radiation_monochromator  graphite
_diffrn_measurement_device_type  'Bruker P4'
_diffrn_measurement_method       '\w scans'
_diffrn_detector_area_resol_mean ?
_diffrn_standards_number         ?
_diffrn_standards_interval_count ?
_diffrn_standards_interval_time  ?
_diffrn_standards_decay_%        ?
_diffrn_reflns_number            8111
_diffrn_reflns_av_R_equivalents  0.0306
_diffrn_reflns_av_sigmaI/netI    0.0359
_diffrn_reflns_limit_h_min       0
_diffrn_reflns_limit_h_max       17
_diffrn_reflns_limit_k_min       -10
_diffrn_reflns_limit_k_max       10
_diffrn_reflns_limit_l_min       -21
_diffrn_reflns_limit_l_max       20
_diffrn_reflns_theta_min         2.19
_diffrn_reflns_theta_max         22.50
_reflns_number_total             4034
_reflns_number_gt                3466
_reflns_threshold_expression     >2sigma(I)

_computing_data_collection       'Bruker XSCANS'
_computing_cell_refinement       'Bruker XSCANS'
_computing_data_reduction        'Bruker SHELXTL'
_computing_structure_solution    'SHELXS-97 (Sheldrick, 1990)'
_computing_structure_refinement  'SHELXL-97 (Sheldrick, 1997)'
_computing_molecular_graphics    'Bruker SHELXTL'
_computing_publication_material  'Bruker SHELXTL'

_refine_special_details          
;
Refinement of F^2^ against ALL reflections. The weighted R-factor wR and
goodness of fit S are based on F^2^, conventional R-factors R are based
on F, with F set to zero for negative F^2^. The threshold expression of
F^2^ > 2sigma(F^2^) is used only for calculating R-factors(gt) etc. and is
not relevant to the choice of reflections for refinement. R-factors based
on F^2^ are statistically about twice as large as those based on F, and R-
factors based on ALL data will be even larger.
;

_refine_ls_structure_factor_coef Fsqd
_refine_ls_matrix_type           full
_refine_ls_weighting_scheme      calc
_refine_ls_weighting_details     
'calc w=1/[\s^2^(Fo^2^)+(0.0301P)^2^+0.0000P] where P=(Fo^2^+2Fc^2^)/3'
_atom_sites_solution_primary     direct
_atom_sites_solution_secondary   difmap
_atom_sites_solution_hydrogens   geom
_refine_ls_hydrogen_treatment    mixed
_refine_ls_extinction_method     none
_refine_ls_extinction_coef       ?
_refine_ls_number_reflns         4034
_refine_ls_number_parameters     362
_refine_ls_number_restraints     0
_refine_ls_R_factor_all          0.0327
_refine_ls_R_factor_gt           0.0231
_refine_ls_wR_factor_ref         0.0591
_refine_ls_wR_factor_gt          0.0565
_refine_ls_goodness_of_fit_ref   1.071
_refine_ls_restrained_S_all      1.071
_refine_ls_shift/su_max          0.002
_refine_ls_shift/su_mean         0.000

loop_
_atom_site_label
_atom_site_type_symbol
_atom_site_fract_x
_atom_site_fract_y
_atom_site_fract_z
_atom_site_U_iso_or_equiv
_atom_site_adp_type
_atom_site_occupancy
_atom_site_symmetry_multiplicity
_atom_site_calc_flag
_atom_site_refinement_flags
_atom_site_disorder_assembly
_atom_site_disorder_group
C1 C 0.2486(3) 0.0795(6) 1.0184(3) 0.0426(14) Uani 1 1 d . . .
H1A H 0.2860 0.0061 1.0410 0.051 Uiso 1.027(16) 1 calc PR A 1
H1B H 0.2754 0.1597 1.0430 0.051 Uiso 1.027(16) 1 calc PR A 1
C2 C 0.1678(4) 0.0619(6) 1.0315(3) 0.0502(15) Uani 1 1 d . . .
H2A H 0.1285 0.1327 1.0082 0.060 Uiso 1.027(16) 1 calc PR A 1
H2B H 0.1418 -0.0216 1.0109 0.060 Uiso 1.027(16) 1 calc PR A 1
C3 C 0.1808(4) 0.1862(6) 1.1395(3) 0.0588(17) Uani 1 1 d . . .
H3A H 0.1998 0.2531 1.1129 0.071 Uiso 1.027(16) 1 calc PR A 1
H3B H 0.2220 0.1841 1.1879 0.071 Uiso 1.027(16) 1 calc PR A 1
C4 C 0.0945(4) 0.2258(7) 1.1426(3) 0.0586(17) Uani 1 1 d . . .
H4A H 0.0683 0.1511 1.1582 0.070 Uiso 1.027(16) 1 calc PR A 1
H4B H 0.1013 0.2974 1.1768 0.070 Uiso 1.027(16) 1 calc PR A 1
C5 C -0.0416(4) 0.3049(6) 1.0727(3) 0.0480(15) Uani 1 1 d . . .
H5A H -0.0365 0.3741 1.1080 0.058 Uiso 1.027(16) 1 calc PR A 1
H5B H -0.0700 0.2293 1.0853 0.058 Uiso 1.027(16) 1 calc PR A 1
C6 C -0.0941(4) 0.3542(5) 0.9998(3) 0.0458(14) Uani 1 1 d . . .
H6A H -0.1434 0.4022 1.0034 0.055 Uiso 1.027(16) 1 calc PR A 1
H6B H -0.0596 0.4164 0.9837 0.055 Uiso 1.027(16) 1 calc PR A 1
C7 C -0.0646(4) 0.2190(5) 0.9114(3) 0.0428(14) Uani 1 1 d . . .
H7A H -0.0751 0.1283 0.8942 0.051 Uiso 1.027(16) 1 calc PR A 1
H7B H -0.0059 0.2247 0.9445 0.051 Uiso 1.027(16) 1 calc PR A 1
C8 C -0.0756(3) 0.3106(5) 0.8492(3) 0.0387(13) Uani 1 1 d . . .
H8A H -0.0607 0.3994 0.8682 0.046 Uiso 1.027(16) 1 calc PR A 1
H8B H -0.1363 0.3116 0.8202 0.046 Uiso 1.027(16) 1 calc PR A 1
C9 C 0.3446(3) 0.1829(4) 0.9360(3) 0.0321(12) Uani 1 1 d . . .
C10 C 0.3467(4) 0.2941(5) 0.8970(3) 0.0388(13) Uani 1 1 d . . .
H10 H 0.2963 0.3234 0.8624 0.047 Uiso 1.027(16) 1 calc PR A 1
C11 C 0.4225(4) 0.3639(6) 0.9082(3) 0.0504(15) Uani 1 1 d . . .
H11 H 0.4230 0.4385 0.8806 0.060 Uiso 1.027(16) 1 calc PR A 1
C12 C 0.4967(4) 0.3226(6) 0.9601(3) 0.0514(16) Uani 1 1 d . . .
H12 H 0.5474 0.3705 0.9685 0.062 Uiso 1.027(16) 1 calc PR A 1
C13 C 0.4966(4) 0.2117(6) 0.9994(3) 0.0493(15) Uani 1 1 d . . .
H13 H 0.5475 0.1834 1.0340 0.059 Uiso 1.027(16) 1 calc PR A 1
C14 C 0.4219(3) 0.1413(5) 0.9885(3) 0.0428(14) Uani 1 1 d . . .
H14 H 0.4224 0.0661 1.0158 0.051 Uiso 1.027(16) 1 calc PR A 1
C15 C 0.2703(3) -0.0733(5) 0.8990(3) 0.0295(11) Uani 1 1 d . . .
C16 C 0.3001(3) -0.0832(5) 0.8412(3) 0.0390(13) Uani 1 1 d . . .
H16 H 0.3108 -0.0065 0.8195 0.047 Uiso 1.027(16) 1 calc PR A 1
C17 C 0.3138(4) -0.2062(6) 0.8158(3) 0.0470(15) Uani 1 1 d . . .
H17 H 0.3351 -0.2118 0.7780 0.056 Uiso 1.027(16) 1 calc PR A 1
C18 C 0.2960(4) -0.3205(5) 0.8466(3) 0.0523(16) Uani 1 1 d . . .
H18 H 0.3026 -0.4031 0.8281 0.063 Uiso 1.027(16) 1 calc PR A 1
C19 C 0.2684(4) -0.3115(5) 0.9049(4) 0.0517(16) Uani 1 1 d . . .
H19 H 0.2589 -0.3886 0.9269 0.062 Uiso 1.027(16) 1 calc PR A 1
C20 C 0.2546(3) -0.1895(5) 0.9311(3) 0.0387(13) Uani 1 1 d . . .
H20 H 0.2351 -0.1848 0.9699 0.046 Uiso 1.027(16) 1 calc PR A 1
C21 C -0.0834(3) 0.1701(4) 0.7187(3) 0.0314(12) Uani 1 1 d . . .
C22 C -0.1411(4) 0.0814(5) 0.7317(3) 0.0484(15) Uani 1 1 d . . .
H22 H -0.1480 0.0781 0.7764 0.058 Uiso 1.027(16) 1 calc PR A 1
C23 C -0.1882(4) -0.0021(6) 0.6764(4) 0.0664(19) Uani 1 1 d . . .
H23 H -0.2265 -0.0624 0.6846 0.080 Uiso 1.027(16) 1 calc PR A 1
C24 C -0.1793(4) 0.0028(6) 0.6106(3) 0.0619(19) Uani 1 1 d . . .
H24 H -0.2123 -0.0526 0.5741 0.074 Uiso 1.027(16) 1 calc PR A 1
C25 C -0.1221(4) 0.0890(6) 0.5982(3) 0.0527(16) Uani 1 1 d . . .
H25 H -0.1156 0.0917 0.5533 0.063 Uiso 1.027(16) 1 calc PR A 1
C26 C -0.0740(4) 0.1717(5) 0.6520(3) 0.0418(14) Uani 1 1 d . . .
H26 H -0.0347 0.2295 0.6434 0.050 Uiso 1.027(16) 1 calc PR A 1
C27 C -0.0169(3) 0.4356(4) 0.7468(2) 0.0313(12) Uani 1 1 d . . .
C28 C -0.0964(4) 0.4891(5) 0.7059(3) 0.0417(13) Uani 1 1 d . . .
H28 H -0.1460 0.4379 0.6959 0.050 Uiso 1.027(16) 1 calc PR A 1
C29 C -0.1022(4) 0.6165(6) 0.6801(3) 0.0499(16) Uani 1 1 d . . .
H29 H -0.1554 0.6510 0.6525 0.060 Uiso 1.027(16) 1 calc PR A 1
C30 C -0.0296(4) 0.6926(5) 0.6952(3) 0.0522(16) Uani 1 1 d . . .
H30 H -0.0336 0.7796 0.6787 0.063 Uiso 1.027(16) 1 calc PR A 1
C31 C 0.0494(4) 0.6406(5) 0.7349(3) 0.0494(15) Uani 1 1 d . . .
H31 H 0.0987 0.6921 0.7443 0.059 Uiso 1.027(16) 1 calc PR A 1
C32 C 0.0558(3) 0.5138(5) 0.7605(3) 0.0388(13) Uani 1 1 d . . .
H32 H 0.1095 0.4798 0.7874 0.047 Uiso 1.027(16) 1 calc PR A 1
Cl1 Cl 0.15131(9) 0.36582(12) 0.92749(7) 0.0426(3) Uani 1 1 d . . .
Cl2 Cl 0.09048(9) 0.00255(13) 0.77856(8) 0.0537(4) Uani 1 1 d . . .
O1 O 0.1808(3) 0.0627(4) 1.10731(18) 0.0495(10) Uani 1 1 d . . .
O2 O 0.0408(2) 0.2677(4) 1.0732(2) 0.0508(10) Uani 1 1 d . . .
O3 O -0.1237(2) 0.2542(4) 0.9478(2) 0.0451(9) Uani 1 1 d . . .
P1 P 0.24668(8) 0.09047(12) 0.92587(7) 0.0272(3) Uani 1 1 d . . .
P2 P -0.01386(8) 0.27437(12) 0.78984(7) 0.0281(3) Uani 1 1 d . . .
Pt1 Pt 0.119530(11) 0.183887(16) 0.852082(9) 0.02442(8) Uani 1 1 d . . .

loop_
_atom_site_aniso_label
_atom_site_aniso_U_11
_atom_site_aniso_U_22
_atom_site_aniso_U_33
_atom_site_aniso_U_23
_atom_site_aniso_U_13
_atom_site_aniso_U_12
C1 0.042(3) 0.056(4) 0.029(3) 0.006(3) 0.012(3) 0.009(3)
C2 0.048(4) 0.063(4) 0.040(3) -0.002(3) 0.016(3) 0.000(3)
C3 0.045(4) 0.070(5) 0.053(4) -0.005(3) 0.006(3) -0.006(3)
C4 0.058(4) 0.078(4) 0.041(4) -0.011(3) 0.018(3) 0.013(3)
C5 0.046(4) 0.058(4) 0.045(4) -0.008(3) 0.021(3) 0.003(3)
C6 0.046(4) 0.044(3) 0.054(4) -0.009(3) 0.025(3) 0.000(3)
C7 0.051(4) 0.042(3) 0.040(3) -0.005(3) 0.020(3) 0.000(3)
C8 0.033(3) 0.048(3) 0.038(3) 0.001(2) 0.015(3) 0.003(2)
C9 0.028(3) 0.032(3) 0.034(3) -0.007(2) 0.008(2) 0.003(2)
C10 0.037(3) 0.045(3) 0.032(3) 0.002(2) 0.009(3) 0.003(3)
C11 0.044(4) 0.049(3) 0.062(4) 0.007(3) 0.023(3) -0.003(3)
C12 0.031(4) 0.057(4) 0.066(4) -0.011(3) 0.017(3) -0.010(3)
C13 0.022(3) 0.054(4) 0.061(4) -0.003(3) 0.001(3) 0.004(3)
C14 0.038(3) 0.033(3) 0.051(4) 0.004(3) 0.007(3) 0.006(3)
C15 0.023(3) 0.029(3) 0.034(3) 0.003(2) 0.007(2) 0.001(2)
C16 0.045(3) 0.034(3) 0.040(3) 0.002(2) 0.018(3) 0.005(3)
C17 0.048(4) 0.049(4) 0.047(4) -0.010(3) 0.019(3) 0.008(3)
C18 0.047(4) 0.037(3) 0.069(4) -0.007(3) 0.014(3) 0.004(3)
C19 0.048(4) 0.030(3) 0.078(5) 0.008(3) 0.023(3) -0.006(3)
C20 0.031(3) 0.038(3) 0.049(4) 0.006(3) 0.015(3) -0.003(2)
C21 0.024(3) 0.033(3) 0.030(3) 0.005(2) 0.000(2) 0.003(2)
C22 0.043(4) 0.051(3) 0.046(4) 0.005(3) 0.009(3) -0.006(3)
C23 0.049(4) 0.060(4) 0.074(5) -0.002(4) -0.001(4) -0.028(3)
C24 0.057(4) 0.057(4) 0.048(4) -0.013(3) -0.013(3) 0.002(3)
C25 0.060(4) 0.050(4) 0.041(4) -0.008(3) 0.008(3) 0.005(3)
C26 0.044(3) 0.040(3) 0.040(3) -0.002(3) 0.011(3) -0.001(3)
C27 0.035(3) 0.029(3) 0.028(3) -0.002(2) 0.008(2) 0.002(2)
C28 0.043(3) 0.037(3) 0.039(3) 0.000(3) 0.005(3) -0.004(3)
C29 0.061(4) 0.044(3) 0.036(3) 0.002(3) 0.005(3) 0.012(3)
C30 0.083(5) 0.034(3) 0.043(4) 0.007(3) 0.026(3) 0.007(3)
C31 0.058(4) 0.039(3) 0.055(4) 0.006(3) 0.024(3) -0.006(3)
C32 0.041(3) 0.041(3) 0.038(3) 0.006(2) 0.018(3) 0.002(3)
Cl1 0.0456(8) 0.0297(6) 0.0465(8) -0.0108(6) 0.0080(7) 0.0010(6)
Cl2 0.0473(9) 0.0420(8) 0.0533(9) -0.0217(7) -0.0073(7) 0.0130(7)
O1 0.064(3) 0.061(3) 0.032(2) 0.0069(19) 0.0272(19) 0.011(2)
O2 0.044(2) 0.073(3) 0.040(2) -0.005(2) 0.020(2) 0.010(2)
O3 0.043(2) 0.055(2) 0.048(2) -0.017(2) 0.0291(19) -0.0130(19)
P1 0.0261(7) 0.0285(6) 0.0267(7) 0.0005(5) 0.0085(5) 0.0030(5)
P2 0.0260(7) 0.0298(7) 0.0280(7) 0.0005(5) 0.0085(6) 0.0009(5)
Pt1 0.02398(12) 0.02413(12) 0.02472(12) -0.00065(8) 0.00767(8) 0.00071(8)

_geom_special_details            
;
All esds (except the esd in the dihedral angle between two l.s. planes)
are estimated using the full covariance matrix. The cell esds are taken
into account individually in the estimation of esds in distances, angles
and torsion angles; correlations between esds in cell parameters are only
used when they are defined by crystal symmetry. An approximate (isotropic)
treatment of cell esds is used for estimating esds involving l.s. planes.
;

loop_
_geom_bond_atom_site_label_1
_geom_bond_atom_site_label_2
_geom_bond_distance
_geom_bond_site_symmetry_2
_geom_bond_publ_flag
C1 C2 1.453(7) . ?
C1 P1 1.824(5) . ?
C1 H1A 0.9700 . ?
C1 H1B 0.9700 . ?
C2 O1 1.441(6) . ?
C2 H2A 0.9700 . ?
C2 H2B 0.9700 . ?
C3 O1 1.398(7) . ?
C3 C4 1.500(8) . ?
C3 H3A 0.9700 . ?
C3 H3B 0.9700 . ?
C4 O2 1.423(7) . ?
C4 H4A 0.9700 . ?
C4 H4B 0.9700 . ?
C5 O2 1.407(6) . ?
C5 C6 1.494(8) . ?
C5 H5A 0.9700 . ?
C5 H5B 0.9700 . ?
C6 O3 1.405(6) . ?
C6 H6A 0.9700 . ?
C6 H6B 0.9700 . ?
C7 O3 1.439(6) . ?
C7 C8 1.498(7) . ?
C7 H7A 0.9700 . ?
C7 H7B 0.9700 . ?
C8 P2 1.834(5) . ?
C8 H8A 0.9700 . ?
C8 H8B 0.9700 . ?
C9 C10 1.367(7) . ?
C9 C14 1.408(7) . ?
C9 P1 1.817(5) . ?
C10 C11 1.386(8) . ?
C10 H10 0.9300 . ?
C11 C12 1.369(8) . ?
C11 H11 0.9300 . ?
C12 C13 1.363(8) . ?
C12 H12 0.9300 . ?
C13 C14 1.374(8) . ?
C13 H13 0.9300 . ?
C14 H14 0.9300 . ?
C15 C16 1.392(7) . ?
C15 C20 1.397(7) . ?
C15 P1 1.817(5) . ?
C16 C17 1.386(7) . ?
C16 H16 0.9300 . ?
C17 C18 1.380(8) . ?
C17 H17 0.9300 . ?
C18 C19 1.380(8) . ?
C18 H18 0.9300 . ?
C19 C20 1.383(7) . ?
C19 H19 0.9300 . ?
C20 H20 0.9300 . ?
C21 C26 1.379(7) . ?
C21 C22 1.392(7) . ?
C21 P2 1.819(5) . ?
C22 C23 1.390(8) . ?
C22 H22 0.9300 . ?
C23 C24 1.360(9) . ?
C23 H23 0.9300 . ?
C24 C25 1.366(9) . ?
C24 H24 0.9300 . ?
C25 C26 1.373(8) . ?
C25 H25 0.9300 . ?
C26 H26 0.9300 . ?
C27 C32 1.383(7) . ?
C27 C28 1.395(7) . ?
C27 P2 1.828(5) . ?
C28 C29 1.373(7) . ?
C28 H28 0.9300 . ?
C29 C30 1.367(8) . ?
C29 H29 0.9300 . ?
C30 C31 1.377(8) . ?
C30 H30 0.9300 . ?
C31 C32 1.366(7) . ?
C31 H31 0.9300 . ?
C32 H32 0.9300 . ?
Cl1 Pt1 2.3098(13) . ?
Cl2 Pt1 2.2838(13) . ?
P1 Pt1 2.3118(14) . ?
P2 Pt1 2.3143(14) . ?

loop_
_geom_angle_atom_site_label_1
_geom_angle_atom_site_label_2
_geom_angle_atom_site_label_3
_geom_angle
_geom_angle_site_symmetry_1
_geom_angle_site_symmetry_3
_geom_angle_publ_flag
C2 C1 P1 118.8(4) . . ?
C2 C1 H1A 107.6 . . ?
P1 C1 H1A 107.6 . . ?
C2 C1 H1B 107.6 . . ?
P1 C1 H1B 107.6 . . ?
H1A C1 H1B 107.0 . . ?
O1 C2 C1 111.3(5) . . ?
O1 C2 H2A 109.4 . . ?
C1 C2 H2A 109.4 . . ?
O1 C2 H2B 109.4 . . ?
C1 C2 H2B 109.4 . . ?
H2A C2 H2B 108.0 . . ?
O1 C3 C4 113.7(5) . . ?
O1 C3 H3A 108.8 . . ?
C4 C3 H3A 108.8 . . ?
O1 C3 H3B 108.8 . . ?
C4 C3 H3B 108.8 . . ?
H3A C3 H3B 107.7 . . ?
O2 C4 C3 109.2(5) . . ?
O2 C4 H4A 109.8 . . ?
C3 C4 H4A 109.8 . . ?
O2 C4 H4B 109.8 . . ?
C3 C4 H4B 109.8 . . ?
H4A C4 H4B 108.3 . . ?
O2 C5 C6 109.8(5) . . ?
O2 C5 H5A 109.7 . . ?
C6 C5 H5A 109.7 . . ?
O2 C5 H5B 109.7 . . ?
C6 C5 H5B 109.7 . . ?
H5A C5 H5B 108.2 . . ?
O3 C6 C5 114.4(5) . . ?
O3 C6 H6A 108.7 . . ?
C5 C6 H6A 108.7 . . ?
O3 C6 H6B 108.7 . . ?
C5 C6 H6B 108.7 . . ?
H6A C6 H6B 107.6 . . ?
O3 C7 C8 110.1(4) . . ?
O3 C7 H7A 109.6 . . ?
C8 C7 H7A 109.6 . . ?
O3 C7 H7B 109.6 . . ?
C8 C7 H7B 109.6 . . ?
H7A C7 H7B 108.2 . . ?
C7 C8 P2 117.6(4) . . ?
C7 C8 H8A 107.9 . . ?
P2 C8 H8A 107.9 . . ?
C7 C8 H8B 107.9 . . ?
P2 C8 H8B 107.9 . . ?
H8A C8 H8B 107.2 . . ?
C10 C9 C14 118.0(5) . . ?
C10 C9 P1 123.3(4) . . ?
C14 C9 P1 118.6(4) . . ?
C9 C10 C11 121.4(5) . . ?
C9 C10 H10 119.3 . . ?
C11 C10 H10 119.3 . . ?
C12 C11 C10 119.6(6) . . ?
C12 C11 H11 120.2 . . ?
C10 C11 H11 120.2 . . ?
C13 C12 C11 120.3(5) . . ?
C13 C12 H12 119.8 . . ?
C11 C12 H12 119.8 . . ?
C12 C13 C14 120.5(5) . . ?
C12 C13 H13 119.8 . . ?
C14 C13 H13 119.8 . . ?
C13 C14 C9 120.2(5) . . ?
C13 C14 H14 119.9 . . ?
C9 C14 H14 119.9 . . ?
C16 C15 C20 118.9(5) . . ?
C16 C15 P1 118.4(4) . . ?
C20 C15 P1 122.6(4) . . ?
C17 C16 C15 120.6(5) . . ?
C17 C16 H16 119.7 . . ?
C15 C16 H16 119.7 . . ?
C18 C17 C16 120.1(6) . . ?
C18 C17 H17 119.9 . . ?
C16 C17 H17 119.9 . . ?
C19 C18 C17 119.6(5) . . ?
C19 C18 H18 120.2 . . ?
C17 C18 H18 120.2 . . ?
C18 C19 C20 121.0(5) . . ?
C18 C19 H19 119.5 . . ?
C20 C19 H19 119.5 . . ?
C19 C20 C15 119.8(5) . . ?
C19 C20 H20 120.1 . . ?
C15 C20 H20 120.1 . . ?
C26 C21 C22 119.3(5) . . ?
C26 C21 P2 119.2(4) . . ?
C22 C21 P2 121.3(4) . . ?
C23 C22 C21 118.7(6) . . ?
C23 C22 H22 120.7 . . ?
C21 C22 H22 120.7 . . ?
C24 C23 C22 121.2(6) . . ?
C24 C23 H23 119.4 . . ?
C22 C23 H23 119.4 . . ?
C23 C24 C25 120.1(6) . . ?
C23 C24 H24 119.9 . . ?
C25 C24 H24 119.9 . . ?
C24 C25 C26 119.9(6) . . ?
C24 C25 H25 120.0 . . ?
C26 C25 H25 120.0 . . ?
C25 C26 C21 120.8(5) . . ?
C25 C26 H26 119.6 . . ?
C21 C26 H26 119.6 . . ?
C32 C27 C28 118.4(4) . . ?
C32 C27 P2 122.0(4) . . ?
C28 C27 P2 119.1(4) . . ?
C29 C28 C27 120.7(5) . . ?
C29 C28 H28 119.7 . . ?
C27 C28 H28 119.7 . . ?
C30 C29 C28 119.9(5) . . ?
C30 C29 H29 120.1 . . ?
C28 C29 H29 120.1 . . ?
C29 C30 C31 120.0(5) . . ?
C29 C30 H30 120.0 . . ?
C31 C30 H30 120.0 . . ?
C32 C31 C30 120.5(6) . . ?
C32 C31 H31 119.7 . . ?
C30 C31 H31 119.7 . . ?
C31 C32 C27 120.5(5) . . ?
C31 C32 H32 119.8 . . ?
C27 C32 H32 119.8 . . ?
C3 O1 C2 117.1(4) . . ?
C5 O2 C4 111.8(4) . . ?
C6 O3 C7 114.7(4) . . ?
C9 P1 C15 103.2(2) . . ?
C9 P1 C1 102.0(2) . . ?
C15 P1 C1 107.8(2) . . ?
C9 P1 Pt1 116.34(16) . . ?
C15 P1 Pt1 115.07(16) . . ?
C1 P1 Pt1 111.25(18) . . ?
C21 P2 C27 104.0(2) . . ?
C21 P2 C8 105.6(2) . . ?
C27 P2 C8 100.8(2) . . ?
C21 P2 Pt1 114.91(16) . . ?
C27 P2 Pt1 118.01(17) . . ?
C8 P2 Pt1 111.83(17) . . ?
Cl2 Pt1 Cl1 178.99(5) . . ?
Cl2 Pt1 P1 91.50(5) . . ?
Cl1 Pt1 P1 87.50(5) . . ?
Cl2 Pt1 P2 91.13(5) . . ?
Cl1 Pt1 P2 89.88(5) . . ?
P1 Pt1 P2 173.01(4) . . ?

loop_
_geom_torsion_atom_site_label_1
_geom_torsion_atom_site_label_2
_geom_torsion_atom_site_label_3
_geom_torsion_atom_site_label_4
_geom_torsion
_geom_torsion_site_symmetry_1
_geom_torsion_site_symmetry_2
_geom_torsion_site_symmetry_3
_geom_torsion_site_symmetry_4
_geom_torsion_publ_flag
P1 C1 C2 O1 -176.8(4) . . . . ?
O1 C3 C4 O2 -75.9(7) . . . . ?
O2 C5 C6 O3 74.4(6) . . . . ?
O3 C7 C8 P2 -174.4(3) . . . . ?
C14 C9 C10 C11 0.4(8) . . . . ?
P1 C9 C10 C11 177.9(4) . . . . ?
C9 C10 C11 C12 -1.2(9) . . . . ?
C10 C11 C12 C13 1.5(9) . . . . ?
C11 C12 C13 C14 -1.1(9) . . . . ?
C12 C13 C14 C9 0.4(9) . . . . ?
C10 C9 C14 C13 0.0(8) . . . . ?
P1 C9 C14 C13 -177.6(4) . . . . ?
C20 C15 C16 C17 0.2(8) . . . . ?
P1 C15 C16 C17 -175.9(4) . . . . ?
C15 C16 C17 C18 1.6(9) . . . . ?
C16 C17 C18 C19 -3.1(9) . . . . ?
C17 C18 C19 C20 2.8(9) . . . . ?
C18 C19 C20 C15 -1.1(9) . . . . ?
C16 C15 C20 C19 -0.4(8) . . . . ?
P1 C15 C20 C19 175.5(4) . . . . ?
C26 C21 C22 C23 -0.7(8) . . . . ?
P2 C21 C22 C23 -175.6(4) . . . . ?
C21 C22 C23 C24 -0.7(9) . . . . ?
C22 C23 C24 C25 1.3(10) . . . . ?
C23 C24 C25 C26 -0.6(9) . . . . ?
C24 C25 C26 C21 -0.7(9) . . . . ?
C22 C21 C26 C25 1.4(8) . . . . ?
P2 C21 C26 C25 176.4(4) . . . . ?
C32 C27 C28 C29 -0.3(8) . . . . ?
P2 C27 C28 C29 171.9(4) . . . . ?
C27 C28 C29 C30 -0.6(9) . . . . ?
C28 C29 C30 C31 1.4(9) . . . . ?
C29 C30 C31 C32 -1.2(9) . . . . ?
C30 C31 C32 C27 0.2(8) . . . . ?
C28 C27 C32 C31 0.5(8) . . . . ?
P2 C27 C32 C31 -171.5(4) . . . . ?
C4 C3 O1 C2 93.6(6) . . . . ?
C1 C2 O1 C3 86.5(6) . . . . ?
C6 C5 O2 C4 177.3(5) . . . . ?
C3 C4 O2 C5 179.4(5) . . . . ?
C5 C6 O3 C7 -87.3(6) . . . . ?
C8 C7 O3 C6 -85.4(6) . . . . ?
C10 C9 P1 C15 120.0(4) . . . . ?
C14 C9 P1 C15 -62.6(4) . . . . ?
C10 C9 P1 C1 -128.3(5) . . . . ?
C14 C9 P1 C1 49.2(5) . . . . ?
C10 C9 P1 Pt1 -7.0(5) . . . . ?
C14 C9 P1 Pt1 170.4(3) . . . . ?
C16 C15 P1 C9 -51.8(4) . . . . ?
C20 C15 P1 C9 132.2(4) . . . . ?
C16 C15 P1 C1 -159.3(4) . . . . ?
C20 C15 P1 C1 24.8(5) . . . . ?
C16 C15 P1 Pt1 75.9(4) . . . . ?
C20 C15 P1 Pt1 -100.0(4) . . . . ?
C2 C1 P1 C9 155.3(5) . . . . ?
C2 C1 P1 C15 -96.5(5) . . . . ?
C2 C1 P1 Pt1 30.5(5) . . . . ?
C26 C21 P2 C27 46.8(4) . . . . ?
C22 C21 P2 C27 -138.3(4) . . . . ?
C26 C21 P2 C8 152.5(4) . . . . ?
C22 C21 P2 C8 -32.6(5) . . . . ?
C26 C21 P2 Pt1 -83.7(4) . . . . ?
C22 C21 P2 Pt1 91.2(4) . . . . ?
C32 C27 P2 C21 -140.0(4) . . . . ?
C28 C27 P2 C21 48.1(4) . . . . ?
C32 C27 P2 C8 110.7(4) . . . . ?
C28 C27 P2 C8 -61.2(4) . . . . ?
C32 C27 P2 Pt1 -11.3(5) . . . . ?
C28 C27 P2 Pt1 176.7(3) . . . . ?
C7 C8 P2 C21 91.6(4) . . . . ?
C7 C8 P2 C27 -160.3(4) . . . . ?
C7 C8 P2 Pt1 -34.0(5) . . . . ?
C9 P1 Pt1 Cl2 120.60(19) . . . . ?
C15 P1 Pt1 Cl2 -0.20(18) . . . . ?
C1 P1 Pt1 Cl2 -123.2(2) . . . . ?
C9 P1 Pt1 Cl1 -59.25(18) . . . . ?
C15 P1 Pt1 Cl1 179.96(18) . . . . ?
C1 P1 Pt1 Cl1 57.0(2) . . . . ?
C9 P1 Pt1 P2 -127.3(4) . . . . ?
C15 P1 Pt1 P2 111.9(4) . . . . ?
C1 P1 Pt1 P2 -11.1(4) . . . . ?
C21 P2 Pt1 Cl2 3.51(19) . . . . ?
C27 P2 Pt1 Cl2 -119.82(18) . . . . ?
C8 P2 Pt1 Cl2 123.92(19) . . . . ?
C21 P2 Pt1 Cl1 -176.54(19) . . . . ?
C27 P2 Pt1 Cl1 60.13(18) . . . . ?
C8 P2 Pt1 Cl1 -56.13(19) . . . . ?
C21 P2 Pt1 P1 -108.6(4) . . . . ?
C27 P2 Pt1 P1 128.1(4) . . . . ?
C8 P2 Pt1 P1 11.8(4) . . . . ?

_diffrn_measured_fraction_theta_max 0.998
_diffrn_reflns_theta_full        22.50
_diffrn_measured_fraction_theta_full 0.998
_refine_diff_density_max         0.664
_refine_diff_density_min         -0.701
_refine_diff_density_rms         0.104

# Attachment 'DALE6.cif'

# SQUEEZE RESULTS (APPEND TO CIF)
loop_
_platon_squeeze_void_nr
_platon_squeeze_void_average_x
_platon_squeeze_void_average_y
_platon_squeeze_void_average_z
_platon_squeeze_void_volume
_platon_squeeze_void_count_electrons
1 0.000 0.181 0.250 168.2 46.8
2 0.000 -0.181 0.750 168.2 46.2
3 0.500 -0.319 0.250 168.2 46.8
4 0.500 0.319 0.750 168.2 46.2
_platon_squeeze_details          
;
;
