####################################################################### 
# 
# This file contains crystal structure data downloaded from the 
# Cambridge Structural Database (CSD) hosted by the Cambridge 
# Crystallographic Data Centre (CCDC).
# 
# Full information about CCDC data access policies and citation 
# guidelines are available at http://www.ccdc.cam.ac.uk/. 
# 
# Audit and citation data items have may been added by the CCDC. 
# Please retain this information to preserve the provenance of 
# this file and to allow appropriate attribution of the data. 
# 
#######################################################################

data_gm403
_audit_block_doi                 10.5517/ccr2240
_database_code_depnum_ccdc_archive 'CCDC 687181'
loop_
_citation_id
_citation_doi
_citation_year
1 10.1002/chem.200801197 2008
_audit_update_record             
;
2008-05-06 deposited with the CCDC.
2014-12-01 downloaded from the CCDC.
;

_audit_creation_method           SHELXL-97
_chemical_name_systematic        
;
?
;
_chemical_name_common            ?
_chemical_melting_point          ?
_chemical_formula_moiety         ?
_chemical_formula_sum            'C48 H38 Cl4 O P2 Pt'
_chemical_formula_weight         1029.61

loop_
_atom_type_symbol
_atom_type_description
_atom_type_scat_dispersion_real
_atom_type_scat_dispersion_imag
_atom_type_scat_source
C C 0.0033 0.0016 'International Tables Vol C Tables 4.2.6.8 and 6.1.1.4'
H H 0.0000 0.0000 'International Tables Vol C Tables 4.2.6.8 and 6.1.1.4'
O O 0.0106 0.0060 'International Tables Vol C Tables 4.2.6.8 and 6.1.1.4'
P P 0.1023 0.0942 'International Tables Vol C Tables 4.2.6.8 and 6.1.1.4'
Cl Cl 0.1484 0.1585 'International Tables Vol C Tables 4.2.6.8 and 6.1.1.4'
Pt Pt -1.7033 8.3905 'International Tables Vol C Tables 4.2.6.8 and 6.1.1.4'

_symmetry_cell_setting           Monoclinic
_symmetry_space_group_name_H-M   'P21/c '

loop_
_symmetry_equiv_pos_as_xyz
'x, y, z'
'-x, y+1/2, -z+1/2'
'-x, -y, -z'
'x, -y-1/2, z-1/2'

_cell_length_a                   17.178(1)
_cell_length_b                   10.178(1)
_cell_length_c                   23.666(1)
_cell_angle_alpha                90.00
_cell_angle_beta                 93.955(1)
_cell_angle_gamma                90.00
_cell_volume                     4127.9(5)
_cell_formula_units_Z            4
_cell_measurement_temperature    150.0(1)
_cell_measurement_reflns_used    8353
_cell_measurement_theta_min      0.998
_cell_measurement_theta_max      30.034

_exptl_crystal_description       Needle
_exptl_crystal_colour            Yellow
_exptl_crystal_size_max          0.18
_exptl_crystal_size_mid          0.12
_exptl_crystal_size_min          0.10
_exptl_crystal_density_meas      ?
_exptl_crystal_density_diffrn    1.657
_exptl_crystal_density_method    'not measured'
_exptl_crystal_F_000             2040
_exptl_absorpt_coefficient_mu    3.773
_exptl_absorpt_correction_type   multi-scan
_exptl_absorpt_correction_T_min  0.5499
_exptl_absorpt_correction_T_max  0.7041
_exptl_absorpt_process_details   ?

_exptl_special_details           
;
?
;

_diffrn_ambient_temperature      150.0(1)
_diffrn_radiation_wavelength     0.71069
_diffrn_radiation_type           MoK\a
_diffrn_radiation_source         'fine-focus sealed tube'
_diffrn_radiation_monochromator  graphite
_diffrn_measurement_device_type  KappaCCD
_diffrn_measurement_method       'phi and omega scans'
_diffrn_detector_area_resol_mean ?
_diffrn_standards_number         ?
_diffrn_standards_interval_count ?
_diffrn_standards_interval_time  ?
_diffrn_standards_decay_%        ?
_diffrn_reflns_number            27175
_diffrn_reflns_av_R_equivalents  0.0285
_diffrn_reflns_av_sigmaI/netI    0.0574
_diffrn_reflns_limit_h_min       -24
_diffrn_reflns_limit_h_max       23
_diffrn_reflns_limit_k_min       -14
_diffrn_reflns_limit_k_max       13
_diffrn_reflns_limit_l_min       -33
_diffrn_reflns_limit_l_max       21
_diffrn_reflns_theta_min         2.85
_diffrn_reflns_theta_max         30.03
_reflns_number_total             12036
_reflns_number_gt                9040
_reflns_threshold_expression     >2sigma(I)

_computing_data_collection       ?
_computing_cell_refinement       ?
_computing_data_reduction        ?
_computing_structure_solution    'SHELXS-97 (Sheldrick, 1990)'
_computing_structure_refinement  'SHELXL-97 (Sheldrick, 1997)'
_computing_molecular_graphics    ?
_computing_publication_material  ?

_refine_special_details          
;
Refinement of F^2^ against ALL reflections. The weighted R-factor wR and
goodness of fit S are based on F^2^, conventional R-factors R are based
on F, with F set to zero for negative F^2^. The threshold expression of
F^2^ > 2sigma(F^2^) is used only for calculating R-factors(gt) etc. and is
not relevant to the choice of reflections for refinement. R-factors based
on F^2^ are statistically about twice as large as those based on F, and R-
factors based on ALL data will be even larger.

An highly disordered CH2Cl2 molecule was accounted for using the
Platon SQUEEZE function.
;

_refine_ls_structure_factor_coef Fsqd
_refine_ls_matrix_type           full
_refine_ls_weighting_scheme      calc
_refine_ls_weighting_details     
'calc w=1/[\s^2^(Fo^2^)+(0.0415P)^2^+0.0000P] where P=(Fo^2^+2Fc^2^)/3'
_atom_sites_solution_primary     direct
_atom_sites_solution_secondary   difmap
_atom_sites_solution_hydrogens   geom
_refine_ls_hydrogen_treatment    constr
_refine_ls_extinction_method     none
_refine_ls_extinction_coef       ?
_refine_ls_number_reflns         12036
_refine_ls_number_parameters     480
_refine_ls_number_restraints     0
_refine_ls_R_factor_all          0.0522
_refine_ls_R_factor_gt           0.0351
_refine_ls_wR_factor_ref         0.0896
_refine_ls_wR_factor_gt          0.0822
_refine_ls_goodness_of_fit_ref   1.023
_refine_ls_restrained_S_all      1.023
_refine_ls_shift/su_max          0.004
_refine_ls_shift/su_mean         0.000

loop_
_atom_site_label
_atom_site_type_symbol
_atom_site_fract_x
_atom_site_fract_y
_atom_site_fract_z
_atom_site_U_iso_or_equiv
_atom_site_adp_type
_atom_site_occupancy
_atom_site_symmetry_multiplicity
_atom_site_calc_flag
_atom_site_refinement_flags
_atom_site_disorder_assembly
_atom_site_disorder_group
Pt1 Pt 0.770064(7) 0.190845(11) 0.675878(5) 0.02411(5) Uani 1 1 d . . .
Cl1 Cl 0.85878(5) 0.19912(8) 0.75447(4) 0.03445(19) Uani 1 1 d . . .
Cl2 Cl 0.68514(5) 0.29862(8) 0.73280(4) 0.0373(2) Uani 1 1 d . . .
P1 P 0.87296(5) 0.08273(8) 0.64008(3) 0.02420(17) Uani 1 1 d . . .
P2 P 0.66386(5) 0.20996(9) 0.61228(4) 0.0308(2) Uani 1 1 d . . .
O11 O 0.78675(12) 0.1600(2) 0.53251(9) 0.0246(5) Uani 1 1 d . . .
C1 C 0.83617(17) 0.0563(3) 0.52273(13) 0.0245(6) Uani 1 1 d . . .
C2 C 0.88010(19) 0.0096(3) 0.56949(13) 0.0266(7) Uani 1 1 d . . .
C3 C 0.9324(2) -0.0941(3) 0.55945(14) 0.0357(8) Uani 1 1 d . . .
H3 H 0.9652 -0.1285 0.5899 0.043 Uiso 1 1 calc R . .
C4 C 0.9362(2) -0.1451(4) 0.50617(15) 0.0412(9) Uani 1 1 d . . .
H4 H 0.9717 -0.2143 0.5002 0.049 Uiso 1 1 calc R . .
C5 C 0.8892(2) -0.0979(3) 0.46102(14) 0.0374(8) Uani 1 1 d . . .
H5 H 0.8924 -0.1356 0.4245 0.045 Uiso 1 1 calc R . .
C6 C 0.83700(19) 0.0050(3) 0.46863(13) 0.0286(7) Uani 1 1 d . . .
C7 C 0.7828(2) 0.0674(4) 0.42223(13) 0.0334(8) Uani 1 1 d . . .
C8 C 0.7075(2) 0.0954(3) 0.45010(14) 0.0313(7) Uani 1 1 d . . .
C9 C 0.6324(2) 0.0813(4) 0.42511(16) 0.0444(10) Uani 1 1 d . . .
H9 H 0.6253 0.0529 0.3869 0.053 Uiso 1 1 calc R . .
C10 C 0.5691(2) 0.1074(5) 0.45432(18) 0.0640(14) Uani 1 1 d . . .
H10 H 0.5185 0.0995 0.4358 0.077 Uiso 1 1 calc R . .
C11 C 0.5767(2) 0.1454(5) 0.51097(18) 0.0572(12) Uani 1 1 d . . .
H11 H 0.5316 0.1612 0.5310 0.069 Uiso 1 1 calc R . .
C12 C 0.6511(2) 0.1601(4) 0.53820(15) 0.0351(8) Uani 1 1 d . . .
C13 C 0.71340(18) 0.1390(3) 0.50589(14) 0.0264(7) Uani 1 1 d . . .
C14 C 0.7699(2) -0.0210(5) 0.37051(16) 0.0568(12) Uani 1 1 d . . .
H14A H 0.7431 -0.1014 0.3811 0.085 Uiso 1 1 calc R . .
H14B H 0.8204 -0.0438 0.3562 0.085 Uiso 1 1 calc R . .
H14C H 0.7379 0.0253 0.3409 0.085 Uiso 1 1 calc R . .
C15 C 0.8203(3) 0.1971(4) 0.40372(19) 0.0509(11) Uani 1 1 d . . .
H15A H 0.7864 0.2386 0.3739 0.076 Uiso 1 1 calc R . .
H15B H 0.8713 0.1784 0.3893 0.076 Uiso 1 1 calc R . .
H15C H 0.8271 0.2565 0.4363 0.076 Uiso 1 1 calc R . .
C16 C 0.93187(19) 0.3610(3) 0.58287(14) 0.0291(7) Uani 1 1 d . . .
H16 H 0.8861 0.3159 0.5689 0.035 Uiso 1 1 calc R . .
C17 C 0.9493(2) 0.4812(3) 0.56053(15) 0.0338(8) Uani 1 1 d . . .
H17 H 0.9156 0.5188 0.5314 0.041 Uiso 1 1 calc R . .
C18 C 1.0161(2) 0.5477(3) 0.58059(16) 0.0384(8) Uani 1 1 d . . .
H18 H 1.0288 0.6299 0.5645 0.046 Uiso 1 1 calc R . .
C19 C 1.0638(2) 0.4954(4) 0.62345(17) 0.0402(9) Uani 1 1 d . . .
H19 H 1.1090 0.5417 0.6376 0.048 Uiso 1 1 calc R . .
C20 C 1.0461(2) 0.3751(4) 0.64607(15) 0.0364(8) Uani 1 1 d . . .
H20 H 1.0791 0.3396 0.6761 0.044 Uiso 1 1 calc R . .
C21 C 0.98029(19) 0.3047(3) 0.62548(14) 0.0258(7) Uani 1 1 d . . .
C22 C 0.96472(19) 0.1739(3) 0.64809(13) 0.0263(7) Uani 1 1 d . . .
C23 C 1.01739(19) 0.0979(3) 0.67885(14) 0.0313(7) Uani 1 1 d . . .
H23 H 1.0698 0.1251 0.6872 0.038 Uiso 1 1 calc R . .
C24 C 0.9885(2) -0.0265(3) 0.69804(14) 0.0334(8) Uani 1 1 d . . .
H24 H 1.0211 -0.0865 0.7194 0.040 Uiso 1 1 calc R . .
C25 C 0.9129(2) -0.0526(3) 0.68399(13) 0.0296(7) Uani 1 1 d . . .
C26 C 0.8732(2) -0.1764(3) 0.69614(14) 0.0323(8) Uani 1 1 d . . .
C27 C 0.9114(3) -0.2956(3) 0.68670(16) 0.0453(10) Uani 1 1 d . . .
H27 H 0.9608 -0.2950 0.6708 0.054 Uiso 1 1 calc R . .
C28 C 0.8780(3) -0.4134(4) 0.70026(16) 0.0523(12) Uani 1 1 d . . .
H28 H 0.9038 -0.4937 0.6932 0.063 Uiso 1 1 calc R . .
C29 C 0.8068(3) -0.4146(4) 0.72409(17) 0.0538(12) Uani 1 1 d . . .
H29 H 0.7838 -0.4958 0.7336 0.065 Uiso 1 1 calc R . .
C30 C 0.7695(3) -0.2987(4) 0.73408(18) 0.0513(11) Uani 1 1 d . . .
H30 H 0.7213 -0.3001 0.7515 0.062 Uiso 1 1 calc R . .
C31 C 0.8014(2) -0.1793(3) 0.71899(16) 0.0400(9) Uani 1 1 d . . .
H31 H 0.7739 -0.0998 0.7244 0.048 Uiso 1 1 calc R . .
C32 C 0.7318(2) 0.5174(4) 0.58560(16) 0.0398(9) Uani 1 1 d . . .
H32 H 0.7651 0.4614 0.6085 0.048 Uiso 1 1 calc R . .
C33 C 0.7624(3) 0.6308(4) 0.56165(18) 0.0506(10) Uani 1 1 d . . .
H33 H 0.8159 0.6523 0.5693 0.061 Uiso 1 1 calc R . .
C34 C 0.7150(3) 0.7114(5) 0.5270(2) 0.0620(13) Uani 1 1 d . . .
H34 H 0.7355 0.7883 0.5108 0.074 Uiso 1 1 calc R . .
C35 C 0.6370(3) 0.6778(5) 0.5164(2) 0.0703(15) Uani 1 1 d . . .
H35 H 0.6043 0.7319 0.4922 0.084 Uiso 1 1 calc R . .
C36 C 0.6062(3) 0.5681(5) 0.54018(18) 0.0561(11) Uani 1 1 d . . .
H36 H 0.5526 0.5475 0.5322 0.067 Uiso 1 1 calc R . .
C37 C 0.6526(2) 0.4862(4) 0.57601(16) 0.0393(9) Uani 1 1 d . . .
C38 C 0.6186(2) 0.3738(4) 0.60319(16) 0.0387(9) Uani 1 1 d . . .
C39 C 0.5455(2) 0.3646(4) 0.61972(18) 0.0497(11) Uani 1 1 d . . .
H39 H 0.5105 0.4370 0.6172 0.060 Uiso 1 1 calc R . .
C40 C 0.5230(2) 0.2381(4) 0.64156(18) 0.0484(11) Uani 1 1 d . . .
H40 H 0.4730 0.2241 0.6554 0.058 Uiso 1 1 calc R . .
C41 C 0.5764(2) 0.1419(4) 0.64124(15) 0.0379(9) Uani 1 1 d . . .
C42 C 0.5700(2) 0.0056(4) 0.65935(16) 0.0407(9) Uani 1 1 d . . .
C43 C 0.5101(2) -0.0328(5) 0.69321(17) 0.0550(11) Uani 1 1 d . . .
H43 H 0.4753 0.0313 0.7062 0.066 Uiso 1 1 calc R . .
C44 C 0.5013(3) -0.1642(6) 0.7079(2) 0.0689(15) Uani 1 1 d . . .
H44 H 0.4605 -0.1899 0.7307 0.083 Uiso 1 1 calc R . .
C45 C 0.5520(3) -0.2568(5) 0.6892(2) 0.0632(13) Uani 1 1 d . . .
H45 H 0.5458 -0.3465 0.6990 0.076 Uiso 1 1 calc R . .
C46 C 0.6111(3) -0.2205(4) 0.65673(19) 0.0503(11) Uani 1 1 d . . .
H46 H 0.6462 -0.2847 0.6442 0.060 Uiso 1 1 calc R . .
C47 C 0.6197(2) -0.0906(4) 0.64222(16) 0.0410(9) Uani 1 1 d . . .
H47 H 0.6611 -0.0665 0.6197 0.049 Uiso 1 1 calc R . .

loop_
_atom_site_aniso_label
_atom_site_aniso_U_11
_atom_site_aniso_U_22
_atom_site_aniso_U_33
_atom_site_aniso_U_23
_atom_site_aniso_U_13
_atom_site_aniso_U_12
Pt1 0.02082(7) 0.02950(8) 0.02228(7) -0.00524(5) 0.00339(5) -0.00271(5)
Cl1 0.0328(5) 0.0478(5) 0.0222(4) -0.0055(3) -0.0018(3) 0.0020(4)
Cl2 0.0274(4) 0.0510(5) 0.0345(5) -0.0177(4) 0.0084(4) -0.0030(4)
P1 0.0233(4) 0.0293(4) 0.0200(4) 0.0000(3) 0.0015(3) 0.0024(4)
P2 0.0192(4) 0.0423(5) 0.0308(5) -0.0143(4) 0.0011(4) -0.0004(4)
O11 0.0188(11) 0.0291(11) 0.0253(11) -0.0047(9) -0.0029(9) 0.0038(9)
C1 0.0186(15) 0.0266(15) 0.0286(17) 0.0009(13) 0.0032(13) 0.0017(13)
C2 0.0267(17) 0.0323(16) 0.0211(16) -0.0015(12) 0.0042(13) 0.0040(14)
C3 0.043(2) 0.0408(19) 0.0232(17) 0.0032(14) 0.0021(15) 0.0163(17)
C4 0.046(2) 0.047(2) 0.031(2) -0.0040(16) 0.0069(17) 0.0226(19)
C5 0.045(2) 0.047(2) 0.0211(17) -0.0074(14) 0.0097(15) 0.0120(18)
C6 0.0277(17) 0.0371(17) 0.0210(16) -0.0012(13) 0.0014(13) 0.0007(15)
C7 0.0281(17) 0.052(2) 0.0198(16) -0.0012(15) -0.0001(13) 0.0073(17)
C8 0.0297(18) 0.0378(18) 0.0262(17) -0.0028(14) -0.0003(14) 0.0036(15)
C9 0.036(2) 0.063(2) 0.033(2) -0.0194(18) -0.0054(16) -0.0026(19)
C10 0.023(2) 0.124(4) 0.043(3) -0.034(3) -0.0064(18) 0.001(2)
C11 0.0204(19) 0.103(3) 0.048(3) -0.035(3) -0.0006(17) 0.003(2)
C12 0.0200(17) 0.050(2) 0.035(2) -0.0152(16) -0.0015(14) -0.0026(16)
C13 0.0219(16) 0.0291(16) 0.0275(17) -0.0025(13) -0.0035(13) 0.0030(14)
C14 0.045(2) 0.096(3) 0.028(2) -0.022(2) -0.0052(18) 0.017(2)
C15 0.042(2) 0.071(3) 0.040(2) 0.025(2) 0.0055(19) -0.002(2)
C16 0.0240(17) 0.0336(17) 0.0298(18) -0.0033(14) 0.0018(14) -0.0019(15)
C17 0.036(2) 0.0342(18) 0.0309(19) 0.0021(14) -0.0004(15) 0.0046(16)
C18 0.041(2) 0.0315(18) 0.043(2) -0.0008(15) 0.0048(17) -0.0037(17)
C19 0.0300(19) 0.042(2) 0.048(2) -0.0040(17) -0.0023(17) -0.0107(17)
C20 0.0287(18) 0.045(2) 0.035(2) 0.0015(16) -0.0050(15) -0.0024(17)
C21 0.0250(17) 0.0315(16) 0.0216(16) -0.0020(12) 0.0067(13) 0.0007(14)
C22 0.0214(16) 0.0366(18) 0.0211(16) -0.0002(13) 0.0038(13) 0.0013(14)
C23 0.0211(16) 0.048(2) 0.0251(17) 0.0034(14) 0.0009(13) 0.0026(15)
C24 0.037(2) 0.0394(19) 0.0238(17) 0.0043(14) -0.0010(15) 0.0098(17)
C25 0.0327(18) 0.0357(18) 0.0201(16) 0.0007(13) 0.0004(13) 0.0055(16)
C26 0.043(2) 0.0339(18) 0.0193(16) 0.0023(13) -0.0038(15) -0.0009(16)
C27 0.068(3) 0.040(2) 0.027(2) 0.0026(15) -0.0037(19) 0.012(2)
C28 0.092(4) 0.0306(19) 0.031(2) 0.0006(15) -0.014(2) -0.003(2)
C29 0.093(4) 0.033(2) 0.032(2) 0.0060(16) -0.022(2) -0.015(2)
C30 0.055(3) 0.057(3) 0.041(2) 0.0081(18) -0.008(2) -0.022(2)
C31 0.044(2) 0.036(2) 0.039(2) 0.0026(15) -0.0018(18) -0.0055(17)
C32 0.037(2) 0.042(2) 0.040(2) -0.0004(16) -0.0016(17) 0.0083(18)
C33 0.042(2) 0.059(3) 0.051(3) 0.007(2) 0.008(2) 0.009(2)
C34 0.067(3) 0.068(3) 0.052(3) 0.020(2) 0.013(2) 0.013(3)
C35 0.064(3) 0.089(4) 0.056(3) 0.022(3) -0.007(3) 0.027(3)
C36 0.042(2) 0.073(3) 0.051(3) -0.001(2) -0.015(2) 0.012(2)
C37 0.038(2) 0.044(2) 0.035(2) -0.0100(16) -0.0055(17) 0.0099(18)
C38 0.0296(19) 0.047(2) 0.039(2) -0.0183(17) -0.0051(16) 0.0066(18)
C39 0.028(2) 0.059(3) 0.061(3) -0.028(2) -0.0036(19) 0.009(2)
C40 0.0208(18) 0.072(3) 0.053(3) -0.028(2) 0.0037(17) -0.002(2)
C41 0.0229(18) 0.054(2) 0.037(2) -0.0203(18) 0.0024(15) -0.0065(18)
C42 0.0218(18) 0.069(3) 0.032(2) -0.0144(18) 0.0038(15) -0.0099(18)
C43 0.032(2) 0.091(3) 0.042(2) -0.007(2) 0.0084(18) -0.008(2)
C44 0.036(3) 0.122(5) 0.049(3) 0.010(3) 0.011(2) -0.025(3)
C45 0.054(3) 0.080(3) 0.055(3) 0.011(3) 0.001(2) -0.025(3)
C46 0.039(2) 0.062(3) 0.050(3) -0.001(2) 0.001(2) -0.013(2)
C47 0.0296(19) 0.053(2) 0.041(2) -0.0066(18) 0.0064(16) -0.0144(18)

_geom_special_details            
;
All esds (except the esd in the dihedral angle between two l.s. planes)
are estimated using the full covariance matrix. The cell esds are taken
into account individually in the estimation of esds in distances, angles
and torsion angles; correlations between esds in cell parameters are only
used when they are defined by crystal symmetry. An approximate (isotropic)
treatment of cell esds is used for estimating esds involving l.s. planes.
;

loop_
_geom_bond_atom_site_label_1
_geom_bond_atom_site_label_2
_geom_bond_distance
_geom_bond_site_symmetry_2
_geom_bond_publ_flag
Pt1 P2 2.2920(9) . ?
Pt1 P1 2.2933(8) . ?
Pt1 Cl1 2.3234(8) . ?
Pt1 Cl2 2.3274(8) . ?
P1 C22 1.827(3) . ?
P1 C25 1.830(3) . ?
P1 C2 1.841(3) . ?
P2 C12 1.823(4) . ?
P2 C41 1.830(4) . ?
P2 C38 1.846(4) . ?
O11 C1 1.385(4) . ?
O11 C13 1.386(4) . ?
C1 C2 1.380(4) . ?
C1 C6 1.383(4) . ?
C2 C3 1.417(4) . ?
C3 C4 1.369(5) . ?
C3 H3 0.9500 . ?
C4 C5 1.379(5) . ?
C4 H4 0.9500 . ?
C5 C6 1.399(5) . ?
C5 H5 0.9500 . ?
C6 C7 1.528(4) . ?
C7 C8 1.519(5) . ?
C7 C14 1.523(5) . ?
C7 C15 1.546(5) . ?
C8 C9 1.389(5) . ?
C8 C13 1.390(4) . ?
C9 C10 1.354(5) . ?
C9 H9 0.9500 . ?
C10 C11 1.393(5) . ?
C10 H10 0.9500 . ?
C11 C12 1.400(5) . ?
C11 H11 0.9500 . ?
C12 C13 1.374(5) . ?
C14 H14A 0.9800 . ?
C14 H14B 0.9800 . ?
C14 H14C 0.9800 . ?
C15 H15A 0.9800 . ?
C15 H15B 0.9800 . ?
C15 H15C 0.9800 . ?
C16 C17 1.374(5) . ?
C16 C21 1.386(4) . ?
C16 H16 0.9500 . ?
C17 C18 1.388(5) . ?
C17 H17 0.9500 . ?
C18 C19 1.367(5) . ?
C18 H18 0.9500 . ?
C19 C20 1.378(5) . ?
C19 H19 0.9500 . ?
C20 C21 1.398(5) . ?
C20 H20 0.9500 . ?
C21 C22 1.467(4) . ?
C22 C23 1.362(4) . ?
C23 C24 1.445(5) . ?
C23 H23 0.9500 . ?
C24 C25 1.344(5) . ?
C24 H24 0.9500 . ?
C25 C26 1.471(5) . ?
C26 C31 1.381(5) . ?
C26 C27 1.405(5) . ?
C27 C28 1.377(5) . ?
C27 H27 0.9500 . ?
C28 C29 1.381(6) . ?
C28 H28 0.9500 . ?
C29 C30 1.371(6) . ?
C29 H29 0.9500 . ?
C30 C31 1.391(5) . ?
C30 H30 0.9500 . ?
C31 H31 0.9500 . ?
C32 C37 1.400(5) . ?
C32 C33 1.403(5) . ?
C32 H32 0.9500 . ?
C33 C34 1.384(6) . ?
C33 H33 0.9500 . ?
C34 C35 1.389(7) . ?
C34 H34 0.9500 . ?
C35 C36 1.373(7) . ?
C35 H35 0.9500 . ?
C36 C37 1.399(5) . ?
C36 H36 0.9500 . ?
C37 C38 1.455(6) . ?
C38 C39 1.343(5) . ?
C39 C40 1.449(7) . ?
C39 H39 0.9500 . ?
C40 C41 1.343(5) . ?
C40 H40 0.9500 . ?
C41 C42 1.458(6) . ?
C42 C47 1.378(5) . ?
C42 C43 1.403(5) . ?
C43 C44 1.394(7) . ?
C43 H43 0.9500 . ?
C44 C45 1.376(7) . ?
C44 H44 0.9500 . ?
C45 C46 1.367(6) . ?
C45 H45 0.9500 . ?
C46 C47 1.377(5) . ?
C46 H46 0.9500 . ?
C47 H47 0.9500 . ?

loop_
_geom_angle_atom_site_label_1
_geom_angle_atom_site_label_2
_geom_angle_atom_site_label_3
_geom_angle
_geom_angle_site_symmetry_1
_geom_angle_site_symmetry_3
_geom_angle_publ_flag
P2 Pt1 P1 113.39(3) . . ?
P2 Pt1 Cl1 166.20(3) . . ?
P1 Pt1 Cl1 80.41(3) . . ?
P2 Pt1 Cl2 80.66(3) . . ?
P1 Pt1 Cl2 165.87(3) . . ?
Cl1 Pt1 Cl2 85.54(3) . . ?
C22 P1 C25 92.05(15) . . ?
C22 P1 C2 100.85(15) . . ?
C25 P1 C2 99.52(14) . . ?
C22 P1 Pt1 113.54(10) . . ?
C25 P1 Pt1 114.83(11) . . ?
C2 P1 Pt1 129.09(11) . . ?
C12 P2 C41 102.00(16) . . ?
C12 P2 C38 96.75(17) . . ?
C41 P2 C38 92.02(19) . . ?
C12 P2 Pt1 130.16(12) . . ?
C41 P2 Pt1 111.02(13) . . ?
C38 P2 Pt1 117.59(11) . . ?
C1 O11 C13 110.8(2) . . ?
C2 C1 C6 124.9(3) . . ?
C2 C1 O11 115.8(3) . . ?
C6 C1 O11 119.2(3) . . ?
C1 C2 C3 116.1(3) . . ?
C1 C2 P1 121.5(2) . . ?
C3 C2 P1 122.4(2) . . ?
C4 C3 C2 120.5(3) . . ?
C4 C3 H3 119.8 . . ?
C2 C3 H3 119.8 . . ?
C3 C4 C5 121.3(3) . . ?
C3 C4 H4 119.3 . . ?
C5 C4 H4 119.3 . . ?
C4 C5 C6 120.4(3) . . ?
C4 C5 H5 119.8 . . ?
C6 C5 H5 119.8 . . ?
C1 C6 C5 116.7(3) . . ?
C1 C6 C7 117.6(3) . . ?
C5 C6 C7 125.7(3) . . ?
C8 C7 C14 112.2(3) . . ?
C8 C7 C6 105.1(3) . . ?
C14 C7 C6 112.3(3) . . ?
C8 C7 C15 110.3(3) . . ?
C14 C7 C15 108.5(3) . . ?
C6 C7 C15 108.3(3) . . ?
C9 C8 C13 116.3(3) . . ?
C9 C8 C7 126.1(3) . . ?
C13 C8 C7 117.6(3) . . ?
C10 C9 C8 121.1(3) . . ?
C10 C9 H9 119.4 . . ?
C8 C9 H9 119.4 . . ?
C9 C10 C11 121.4(4) . . ?
C9 C10 H10 119.3 . . ?
C11 C10 H10 119.3 . . ?
C10 C11 C12 119.7(4) . . ?
C10 C11 H11 120.2 . . ?
C12 C11 H11 120.2 . . ?
C13 C12 C11 116.6(3) . . ?
C13 C12 P2 122.2(3) . . ?
C11 C12 P2 121.2(3) . . ?
C12 C13 O11 116.2(3) . . ?
C12 C13 C8 124.7(3) . . ?
O11 C13 C8 119.0(3) . . ?
C7 C14 H14A 109.5 . . ?
C7 C14 H14B 109.5 . . ?
H14A C14 H14B 109.5 . . ?
C7 C14 H14C 109.5 . . ?
H14A C14 H14C 109.5 . . ?
H14B C14 H14C 109.5 . . ?
C7 C15 H15A 109.5 . . ?
C7 C15 H15B 109.5 . . ?
H15A C15 H15B 109.5 . . ?
C7 C15 H15C 109.5 . . ?
H15A C15 H15C 109.5 . . ?
H15B C15 H15C 109.5 . . ?
C17 C16 C21 120.8(3) . . ?
C17 C16 H16 119.6 . . ?
C21 C16 H16 119.6 . . ?
C16 C17 C18 120.0(3) . . ?
C16 C17 H17 120.0 . . ?
C18 C17 H17 120.0 . . ?
C19 C18 C17 120.2(3) . . ?
C19 C18 H18 119.9 . . ?
C17 C18 H18 119.9 . . ?
C18 C19 C20 119.9(3) . . ?
C18 C19 H19 120.1 . . ?
C20 C19 H19 120.1 . . ?
C19 C20 C21 121.0(3) . . ?
C19 C20 H20 119.5 . . ?
C21 C20 H20 119.5 . . ?
C16 C21 C20 118.2(3) . . ?
C16 C21 C22 121.7(3) . . ?
C20 C21 C22 120.1(3) . . ?
C23 C22 C21 125.4(3) . . ?
C23 C22 P1 107.7(2) . . ?
C21 C22 P1 126.9(2) . . ?
C22 C23 C24 115.8(3) . . ?
C22 C23 H23 122.1 . . ?
C24 C23 H23 122.1 . . ?
C25 C24 C23 116.2(3) . . ?
C25 C24 H24 121.9 . . ?
C23 C24 H24 121.9 . . ?
C24 C25 C26 125.0(3) . . ?
C24 C25 P1 108.1(3) . . ?
C26 C25 P1 126.5(3) . . ?
C31 C26 C27 119.0(3) . . ?
C31 C26 C25 122.2(3) . . ?
C27 C26 C25 118.7(4) . . ?
C28 C27 C26 120.5(5) . . ?
C28 C27 H27 119.8 . . ?
C26 C27 H27 119.8 . . ?
C27 C28 C29 119.9(4) . . ?
C27 C28 H28 120.0 . . ?
C29 C28 H28 120.0 . . ?
C30 C29 C28 120.0(4) . . ?
C30 C29 H29 120.0 . . ?
C28 C29 H29 120.0 . . ?
C29 C30 C31 120.7(5) . . ?
C29 C30 H30 119.7 . . ?
C31 C30 H30 119.7 . . ?
C26 C31 C30 119.9(4) . . ?
C26 C31 H31 120.1 . . ?
C30 C31 H31 120.1 . . ?
C37 C32 C33 120.5(4) . . ?
C37 C32 H32 119.8 . . ?
C33 C32 H32 119.8 . . ?
C34 C33 C32 120.4(4) . . ?
C34 C33 H33 119.8 . . ?
C32 C33 H33 119.8 . . ?
C33 C34 C35 118.8(4) . . ?
C33 C34 H34 120.6 . . ?
C35 C34 H34 120.6 . . ?
C36 C35 C34 121.4(4) . . ?
C36 C35 H35 119.3 . . ?
C34 C35 H35 119.3 . . ?
C35 C36 C37 120.9(4) . . ?
C35 C36 H36 119.6 . . ?
C37 C36 H36 119.6 . . ?
C36 C37 C32 118.0(4) . . ?
C36 C37 C38 120.4(4) . . ?
C32 C37 C38 121.5(3) . . ?
C39 C38 C37 126.6(4) . . ?
C39 C38 P2 107.3(3) . . ?
C37 C38 P2 125.6(3) . . ?
C38 C39 C40 116.4(4) . . ?
C38 C39 H39 121.8 . . ?
C40 C39 H39 121.8 . . ?
C41 C40 C39 116.5(4) . . ?
C41 C40 H40 121.8 . . ?
C39 C40 H40 121.8 . . ?
C40 C41 C42 128.8(4) . . ?
C40 C41 P2 107.8(3) . . ?
C42 C41 P2 123.4(3) . . ?
C47 C42 C43 117.6(4) . . ?
C47 C42 C41 121.9(3) . . ?
C43 C42 C41 120.4(4) . . ?
C44 C43 C42 120.4(4) . . ?
C44 C43 H43 119.8 . . ?
C42 C43 H43 119.8 . . ?
C45 C44 C43 119.7(4) . . ?
C45 C44 H44 120.2 . . ?
C43 C44 H44 120.2 . . ?
C46 C45 C44 120.5(5) . . ?
C46 C45 H45 119.7 . . ?
C44 C45 H45 119.7 . . ?
C45 C46 C47 119.7(5) . . ?
C45 C46 H46 120.1 . . ?
C47 C46 H46 120.1 . . ?
C46 C47 C42 122.0(4) . . ?
C46 C47 H47 119.0 . . ?
C42 C47 H47 119.0 . . ?

_diffrn_measured_fraction_theta_max 0.997
_diffrn_reflns_theta_full        30.03
_diffrn_measured_fraction_theta_full 0.997
_refine_diff_density_max         2.030
_refine_diff_density_min         -1.512
_refine_diff_density_rms         0.124
